LAMMPS (5 Jun 2019)
# LAMMPS input script for thermal conductivity Green-Kubo method for TiO2 Anatase Nanotube

echo		both
units		metal
atom_style	full
boundary    p p p

read_data	50_10_Full.data
  orthogonal box = (-30 -30 0) to (30 30 47.43)
  2 by 4 by 2 MPI processor grid
  reading atoms ...
  1440 atoms
  0 = max # of 1-2 neighbors
  0 = max # of 1-3 neighbors
  0 = max # of 1-4 neighbors
  1 = max # of special neighbors
  special bonds CPU = 0.00106078 secs
  read_data CPU = 0.0163517 secs
velocity	all create 300 219387 mom yes rot yes dist uniform

pair_style buck/coul/long 8 8 ##or 12
pair_coeff 2 2   31120.53 0.154 5.249
pair_coeff 1 2   16957.71 0.194 12.587
pair_coeff 1 1   11782.88 0.234 30.214

kspace_style ewald 1.0e-2  #long-range solver (or pppm )
pair_modify 	shift yes
neigh_modify    delay 0 every 1 check yes

min_style	cg
minimize 	1.0e-6 1.0e-8 1000 10000
Ewald initialization ...
  using 12-bit tables for long-range coulomb (../kspace.cpp:319)
  G vector (1/distance) = 0.207325
  estimated absolute RMS force accuracy = 0.164601
  estimated relative force accuracy = 0.0114309
  KSpace vectors: actual max1d max3d = 722 7 1687
                  kxmax kymax kzmax  = 7 7 6
Neighbor list info ...
  update every 1 steps, delay 0 steps, check yes
  max neighbors/atom: 2000, page size: 100000
  master list distance cutoff = 10
  ghost atom cutoff = 10
  binsize = 5, bins = 12 12 10
  1 neighbor lists, perpetual/occasional/extra = 1 0 0
  (1) pair buck/coul/long, perpetual
      attributes: half, newton on
      pair build: half/bin/newton
      stencil: half/bin/3d/newton
      bin: standard
Per MPI rank memory allocation (min/avg/max) = 18.6 | 18.81 | 19.01 Mbytes
Step Temp E_pair E_mol TotEng Press 
       0          300    -17131.92            0   -17076.118     25814.13 
       5          300   -17761.766            0   -17705.964    20419.179 
Loop time of 0.346061 on 16 procs for 5 steps with 1440 atoms

70.6% CPU use with 16 MPI tasks x no OpenMP threads

Minimization stats:
  Stopping criterion = linesearch alpha is zero
  Energy initial, next-to-last, final = 
        -17131.9197638     -17761.7655988     -17761.7655988
  Force two-norm initial, final = 232.305 39.9147
  Force max component initial, final = 14.5645 1.85185
  Final line search alpha, max atom move = 5.94689e-12 1.10128e-11
  Iterations, force evaluations = 5 72

MPI task timing breakdown:
Section |  min time  |  avg time  |  max time  |%varavg| %total
---------------------------------------------------------------
Pair    | 3.4332e-05 | 0.057788   | 0.126      |  24.1 | 16.70
Bond    | 6.2045e-06 | 8.7416e-06 | 1.4145e-05 |   0.0 |  0.00
Kspace  | 0.18123    | 0.19216    | 0.21079    |   1.6 | 55.53
Neigh   | 0          | 0          | 0          |   0.0 |  0.00
Comm    | 0.0064889  | 0.088528   | 0.15318    |  19.2 | 25.58
Output  | 0          | 0          | 0          |   0.0 |  0.00
Modify  | 0          | 0          | 0          |   0.0 |  0.00
Other   |            | 0.007573   |            |       |  2.19

Nlocal:    90 ave 204 max 0 min
Histogram: 8 0 0 0 0 0 0 1 3 4
Nghost:    743.75 ave 1069 max 439 min
Histogram: 8 0 0 0 0 0 0 0 0 8
Neighs:    7098 ave 15139 max 0 min
Histogram: 8 0 0 0 0 0 0 0 2 6

Total # of neighbors = 113568
Ave neighs/atom = 78.8667
Ave special neighs/atom = 0
Neighbor list builds = 0
Dangerous builds = 0

region 	fl block  INF INF INF INF INF 5  units box
region          hot block INF INF INF INF 5 10   units box

region          1 block   INF INF INF INF 10 12.5    units box
region          2 block   INF INF INF INF 12.5 15    units box
region          3 block   INF INF INF INF 15 17.5   units box
region          4 block   INF INF INF INF 17.5 20  units box
region          5 block   INF INF INF INF 20 22.5  units box
region          6 block   INF INF INF INF 22.5 25   units box
region          7 block   INF INF INF INF 25 27.5  units box
region          8 block   INF INF INF INF 27.5 30  units box
region          9 block   INF INF INF INF 30 32.5  units box
region          10 block  INF INF INF INF 32.5 35  units box

region          cold block INF INF INF INF 35 40 units box
region          fr block   INF INF INF INF 40 INF units box

group 		fl   region fl
144 atoms in group fl
group 	      	fr   region fr
224 atoms in group fr
group           hot  region hot
192 atoms in group hot
group           cold region cold
176 atoms in group cold
group           middle subtract all hot cold fl fr
704 atoms in group middle

group           1 region 1
64 atoms in group 1
group           2 region 2
64 atoms in group 2
group           3 region 3
80 atoms in group 3
group           4 region 4
80 atoms in group 4
group           5 region 5
64 atoms in group 5
group           6 region 6
64 atoms in group 6
group           7 region 7
80 atoms in group 7
group           8 region 8
80 atoms in group 8
group           9 region 9
64 atoms in group 9
group           10 region 10
64 atoms in group 10

fix             npt all npt temp 300 300 0.1 iso 0 0 1 drag 0.5
thermo          1000 #1000
thermo_style    custom step temp pe ke etotal
dump            1 all atom 1000 dump.lammpstrj
timestep		0.001
run             1000000 #20000
Ewald initialization ...
  using 12-bit tables for long-range coulomb (../kspace.cpp:319)
  G vector (1/distance) = 0.207325
  estimated absolute RMS force accuracy = 0.164601
  estimated relative force accuracy = 0.0114309
  KSpace vectors: actual max1d max3d = 722 7 1687
                  kxmax kymax kzmax  = 7 7 6
Per MPI rank memory allocation (min/avg/max) = 17.48 | 17.68 | 17.89 Mbytes
Step Temp PotEng KinEng TotEng 
       5          300   -17761.766    55.801605   -17705.964 
    1000    391.75965   -18300.885    72.869391   -18228.016 
    2000      311.629    -18323.76    57.964661   -18265.795 
    3000    304.19319   -18327.093     56.58156   -18270.511 
    4000    298.12138   -18338.342    55.452171   -18282.889 
    5000    308.89528   -18338.925    57.456174   -18281.469 
    6000    302.82956   -18345.148    56.327918    -18288.82 
    7000    288.94551   -18340.815    53.745409   -18287.069 
    8000    299.87372   -18344.076    55.778116   -18288.298 
    9000    302.95781    -18343.33    56.351773   -18286.978 
   10000    290.07742   -18350.599    53.955952   -18296.643 
   11000    301.72603   -18344.916    56.122656   -18288.793 
   12000    299.85685    -18352.61    55.774978   -18296.835 
   13000    306.72453    -18352.19    57.052403   -18295.138 
   14000    314.38605   -18358.142    58.477487   -18299.664 
   15000    305.74548   -18356.787    56.870295   -18299.917 
   16000    291.96906   -18354.946    54.307807   -18300.638 
   17000    309.86572    -18354.57     57.63668   -18296.933 
   18000    304.01511   -18351.254    56.548436   -18294.705 
   19000     298.2992   -18359.448    55.485247   -18303.962 
   20000    299.46862    -18356.78    55.702766   -18301.077 
   21000    299.99192   -18363.161    55.800101   -18307.361 
   22000    304.44218   -18355.505    56.627874   -18298.877 
   23000    293.76808    -18359.43    54.642434   -18304.788 
   24000     293.8581   -18363.079    54.659179    -18308.42 
   25000     295.6317   -18362.805    54.989078   -18307.816 
   26000    301.66592   -18362.134    56.111475   -18306.022 
   27000    302.42306   -18363.571    56.252308   -18307.318 
   28000    290.71387    -18362.47    54.074335   -18308.396 
   29000     300.5489   -18364.065    55.903704   -18308.161 
   30000    297.96355   -18364.712    55.422814   -18309.289 
   31000    300.70464   -18362.383    55.932672    -18306.45 
   32000    301.98361   -18370.519    56.170567   -18314.348 
   33000    294.05973   -18368.302    54.696683   -18313.605 
   34000     303.0315   -18373.128    56.365479   -18316.763 
   35000    301.01126   -18379.895    55.989704   -18323.905 
   36000    307.72712   -18374.287     57.23889   -18317.048 
   37000    305.51656   -18375.402    56.827715   -18318.574 
   38000    293.39265   -18375.262    54.572602   -18320.689 
   39000    302.07322   -18378.477    56.187236    -18322.29 
   40000    304.56704   -18370.758    56.651098   -18314.107 
   41000    304.92873   -18380.512    56.718376   -18323.793 
   42000    286.55869    -18368.24    53.301449   -18314.938 
   43000     294.5582   -18381.674    54.789401   -18326.885 
   44000    306.77757   -18382.067    57.062268   -18325.005 
   45000    283.14582   -18379.131    52.666637   -18326.465 
   46000    300.25494   -18373.763    55.849024   -18317.914 
   47000    296.78759   -18382.482    55.204079   -18327.278 
   48000    305.53627   -18379.502     56.83138    -18322.67 
   49000    306.39755   -18380.681    56.991583    -18323.69 
   50000     299.0702   -18379.093    55.628658   -18323.464 
   51000    295.71957    -18379.41    55.005423   -18324.405 
   52000    299.11276   -18373.864    55.636573   -18318.227 
   53000    297.36885   -18379.674    55.312196   -18324.362 
   54000      302.433   -18379.139    56.254156   -18322.885 
   55000    304.63987   -18383.955    56.664646   -18327.291 
   56000    294.61093   -18374.587    54.799209   -18319.787 
   57000    306.69448   -18374.873    57.046814   -18317.826 
   58000    295.62774    -18377.08    54.988342   -18322.092 
   59000    298.37158    -18371.14    55.498711   -18315.641 
   60000    307.80392   -18377.383    57.253175    -18320.13 
   61000    299.93182   -18381.871    55.788923   -18326.082 
   62000    296.31079   -18378.509    55.115391   -18323.394 
   63000     300.0041   -18377.467    55.802367   -18321.665 
   64000    294.87324   -18379.029       54.848   -18324.181 
   65000    298.49258       -18379    55.521216   -18323.479 
   66000    292.59364   -18379.348    54.423982   -18324.924 
   67000    303.37115   -18382.845    56.428657   -18326.416 
   68000    292.91144   -18375.575    54.483095   -18321.092 
   69000    303.85516   -18377.403    56.518685   -18320.884 
   70000    306.72202   -18378.116    57.051937   -18321.064 
   71000    311.79122   -18381.808    57.994834   -18323.813 
   72000    301.76877   -18381.041    56.130604   -18324.911 
   73000    302.43563   -18383.766    56.254646   -18327.511 
   74000    297.29634   -18379.112    55.298709   -18323.813 
   75000    297.72896   -18382.771    55.379179   -18327.392 
   76000    307.30894   -18379.524    57.161107   -18322.363 
   77000    297.00213   -18375.135    55.243985   -18319.891 
   78000    302.52919   -18382.095    56.272048   -18325.823 
   79000    301.56423   -18381.095    56.092561   -18325.002 
   80000    301.99791    -18376.58    56.173227   -18320.406 
   81000    298.06579   -18376.279    55.441831   -18320.837 
   82000    302.95358   -18382.397    56.350987   -18326.046 
   83000    301.17655   -18379.051     56.02045   -18323.031 
   84000     304.9253    -18384.58    56.717737   -18327.862 
   85000     296.6342   -18374.209    55.175549   -18319.034 
   86000    297.67095   -18381.052     55.36839   -18325.684 
   87000     304.8815   -18378.535     56.70959   -18321.826 
   88000    304.33837   -18378.183    56.608564   -18321.575 
   89000    302.20312   -18377.331    56.211398   -18321.119 
   90000    299.33781   -18376.284    55.678434   -18320.605 
   91000    306.75307   -18372.916    57.057712   -18315.858 
   92000    298.10166   -18374.849    55.448503   -18319.401 
   93000    300.64337   -18380.678    55.921274   -18324.756 
   94000    302.09525   -18373.749    56.191332   -18317.558 
   95000    296.28157   -18367.395    55.109957   -18312.285 
   96000    301.21632   -18377.086    56.027847   -18321.058 
   97000    301.07059   -18379.134     56.00074   -18323.133 
   98000    300.77937   -18378.076    55.946572   -18322.129 
   99000     304.8394   -18379.369     56.70176   -18322.667 
  100000    294.22195   -18382.807    54.726857    -18328.08 
  101000     304.7673   -18381.323    56.688347   -18324.634 
  102000    293.18482   -18376.015    54.533945   -18321.481 
  103000    302.35744   -18378.823    56.240101   -18322.583 
  104000    297.66996   -18373.473    55.368204   -18318.104 
  105000    306.90261   -18380.734    57.085527   -18323.648 
  106000    301.33958    -18378.41    56.050774   -18322.359 
  107000    301.57093   -18374.657    56.093806   -18318.563 
  108000    304.76799   -18380.219    56.688476   -18323.531 
  109000    300.37756   -18377.902    55.871833    -18322.03 
  110000    306.46778    -18374.69    57.004647   -18317.686 
  111000    307.03455    -18374.46    57.110069    -18317.35 
  112000    298.66837   -18379.704    55.553915    -18324.15 
  113000    296.12669   -18385.505    55.081148   -18330.423 
  114000    302.86859   -18381.873    56.335178   -18325.538 
  115000    302.58825   -18384.088    56.283033   -18327.805 
  116000    296.62318   -18382.186    55.173498   -18327.012 
  117000    300.09412   -18385.024    55.819112   -18329.205 
  118000    298.46386   -18379.212    55.515874   -18323.696 
  119000    301.15864    -18380.86    56.017118   -18324.843 
  120000    296.97116   -18384.318    55.238224   -18329.079 
  121000    306.19933   -18381.669    56.954713   -18324.715 
  122000    294.92437   -18384.328     54.85751   -18329.471 
  123000    299.04245   -18375.311    55.623495   -18319.687 
  124000    297.30273   -18385.357    55.299898   -18330.057 
  125000    295.64581   -18377.268    54.991701   -18322.276 
  126000     303.1824   -18383.419    56.393547   -18327.025 
  127000    302.74012   -18382.026    56.311281   -18325.715 
  128000    294.25951   -18378.821    54.733843   -18324.088 
  129000    291.18122   -18380.082    54.161264   -18325.921 
  130000    300.83048   -18375.095    55.956078   -18319.139 
  131000    301.40339   -18385.672    56.062643    -18329.61 
  132000    292.53214   -18384.163    54.412543   -18329.751 
  133000    298.31033    -18379.93    55.487317   -18324.443 
  134000     292.0652   -18378.866     54.32569    -18324.54 
  135000    302.10251   -18375.838    56.192683   -18319.646 
  136000    303.40473   -18378.698    56.434903   -18322.263 
  137000    308.46291   -18382.859    57.375751   -18325.483 
  138000     304.4792   -18384.396     56.63476   -18327.761 
  139000     302.7518   -18380.898    56.313454   -18324.585 
  140000    290.50122   -18378.843    54.034781   -18324.808 
  141000    300.21412   -18378.367    55.841432   -18322.525 
  142000    289.42532   -18376.614    53.834658   -18322.779 
  143000    298.12962   -18380.963    55.453705   -18325.509 
  144000    303.36068   -18381.383    56.426708   -18324.957 
  145000    296.37215    -18378.73    55.126805   -18323.604 
  146000    302.40548   -18377.914    56.249037   -18321.665 
  147000    307.05251   -18381.244    57.113408   -18324.131 
  148000    299.97312   -18382.145    55.796605   -18326.348 
  149000    296.45227   -18378.997    55.141708   -18323.855 
  150000    298.51198   -18376.048    55.524825   -18320.523 
  151000    300.27589   -18381.041    55.852922   -18325.188 
  152000    304.63181   -18378.393    56.663147    -18321.73 
  153000    301.54821   -18379.287     56.08958   -18323.197 
  154000    295.80608   -18377.453    55.021512   -18322.431 
  155000    302.32493   -18380.045    56.234053   -18323.811 
  156000    302.78164   -18381.051    56.319005   -18324.732 
  157000    301.83797    -18383.81    56.143476   -18327.667 
  158000    302.69118   -18379.577    56.302179   -18323.275 
  159000    290.64809   -18378.853    54.062099   -18324.791 
  160000    305.10143   -18378.351    56.750497   -18321.601 
  161000    315.16374   -18381.657    58.622141   -18323.034 
  162000     290.5904   -18386.684    54.051369   -18332.633 
  163000    306.57603    -18376.75    57.024782   -18319.725 
  164000    311.11768   -18381.202    57.869552   -18323.332 
  165000    295.74588   -18380.711    55.010316     -18325.7 
  166000    307.29318   -18374.281    57.158176   -18317.123 
  167000    299.38941   -18376.552    55.688031   -18320.864 
  168000    306.15856   -18379.846    56.947129   -18322.899 
  169000     298.8917   -18376.939    55.595456   -18321.344 
  170000     302.1322   -18377.622    56.198205   -18321.424 
  171000    295.15725   -18383.925    54.900828   -18329.024 
  172000    297.72843   -18379.911    55.379081   -18324.532 
  173000    299.72442   -18375.623    55.750346   -18319.873 
  174000    293.73292   -18378.209    54.635894   -18323.573 
  175000    298.35579   -18377.221    55.495773   -18321.725 
  176000    309.01884   -18381.175    57.479157   -18323.696 
  177000    295.57537   -18374.159      54.9786    -18319.18 
  178000    305.57902   -18379.796    56.839332   -18322.957 
  179000     299.0126   -18387.067    55.617944   -18331.449 
  180000    303.71507   -18374.983    56.492628   -18318.491 
  181000    307.37655   -18381.134    57.173681    -18323.96 
  182000    289.00678   -18380.824    53.756807   -18327.067 
  183000    303.78376   -18381.984    56.505405   -18325.478 
  184000    305.16854   -18381.799     56.76298   -18325.036 
  185000    306.14124    -18388.28    56.943908   -18331.336 
  186000    304.23967   -18381.973    56.590207   -18325.383 
  187000    296.19448   -18374.922    55.093758   -18319.828 
  188000     302.7018   -18379.069    56.304153   -18322.764 
  189000    297.39393   -18379.601    55.316862   -18324.284 
  190000    298.98778   -18380.073    55.613326    -18324.46 
  191000    299.58477   -18381.332     55.72437   -18325.607 
  192000    300.48586   -18383.154    55.891978   -18327.262 
  193000    296.57891   -18388.497    55.165263   -18333.332 
  194000    310.18167   -18381.763    57.695449   -18324.068 
  195000    300.84053   -18385.552    55.957948   -18329.594 
  196000    301.09107   -18378.982     56.00455   -18322.977 
  197000    301.19733   -18378.248    56.024315   -18322.224 
  198000    303.41511   -18378.794    56.436834   -18322.358 
  199000    291.94531    -18381.89     54.30339   -18327.586 
  200000    291.24396   -18384.839    54.172934   -18330.666 
  201000    299.07974   -18380.742     55.63043   -18325.112 
  202000    289.36258    -18378.84    53.822987   -18325.017 
  203000    300.44693   -18375.972    55.884735   -18320.088 
  204000    304.75127   -18384.231    56.685367   -18327.546 
  205000    299.42713   -18375.207    55.695049   -18319.512 
  206000    299.99649    -18370.09    55.800953   -18314.289 
  207000    298.81171   -18379.537    55.580576   -18323.957 
  208000    292.63017   -18379.998    54.430778   -18325.567 
  209000    306.26318   -18380.962     56.96659   -18323.996 
  210000    302.83189    -18384.91     56.32835   -18328.582 
  211000    303.37389   -18383.458    56.429166   -18327.029 
  212000    298.59338   -18376.969    55.539965   -18321.429 
  213000    300.63303   -18378.636    55.919351   -18322.717 
  214000    300.21657    -18384.94    55.841888   -18329.099 
  215000    295.94237   -18379.096    55.046863    -18324.05 
  216000    301.27975   -18386.372    56.039645   -18330.333 
  217000    297.09303   -18384.475    55.260893   -18329.215 
  218000     294.1298   -18376.754    54.709715   -18322.045 
  219000      290.456   -18376.107     54.02637   -18322.081 
  220000    294.71227   -18380.278    54.818058    -18325.46 
  221000    307.44193   -18385.261    57.185843   -18328.075 
  222000    296.45105   -18381.147     55.14148   -18326.005 
  223000    292.79908    -18381.03    54.462196   -18326.567 
  224000    300.02106   -18377.589    55.805522   -18321.784 
  225000    301.03477   -18380.582    55.994077   -18324.588 
  226000    300.75941   -18380.827    55.942859   -18324.884 
  227000    304.21264   -18377.304    56.585178   -18320.719 
  228000    297.22162   -18384.693    55.284811   -18329.408 
  229000     294.2779   -18386.576    54.737264   -18331.838 
  230000     308.5039   -18385.282    57.383375   -18327.899 
  231000    303.20307    -18378.52    56.397393   -18322.123 
  232000    299.54716   -18382.541    55.717374   -18326.824 
  233000    301.40228   -18380.995    56.062435   -18324.933 
  234000    299.88651   -18378.323    55.780494   -18322.542 
  235000    298.54517   -18378.956    55.530999   -18323.425 
  236000    297.55465   -18379.103    55.346756   -18323.756 
  237000    296.07626   -18377.069    55.071768   -18321.997 
  238000    300.54232   -18376.727    55.902479   -18320.824 
  239000    302.40947   -18384.932    56.249779   -18328.682 
  240000    294.39006    -18375.67    54.758126   -18320.912 
  241000    301.75237   -18381.739    56.127555   -18325.612 
  242000    292.74144   -18380.975    54.451474   -18326.523 
  243000    301.77506   -18380.081    56.131776   -18323.949 
  244000    301.28168    -18376.09    56.040005    -18320.05 
  245000    307.07524   -18386.764    57.117638   -18329.646 
  246000    295.45253   -18381.392     54.95575   -18326.436 
  247000    305.95518   -18372.637    56.909299   -18315.727 
  248000    305.89579    -18380.55    56.898254   -18323.651 
  249000    297.66685   -18379.617    55.367626    -18324.25 
  250000    305.91365   -18381.127    56.901576   -18324.226 
  251000    293.10249   -18377.867    54.518631   -18323.348 
  252000    308.14002   -18382.601    57.315693   -18325.285 
  253000    295.01005   -18378.904    54.873448   -18324.031 
  254000    300.62986   -18380.273    55.918761   -18324.354 
  255000    305.30192   -18382.378     56.78779   -18325.591 
  256000    303.55698   -18377.259    56.463223   -18320.796 
  257000      293.005     -18381.1    54.500497   -18326.599 
  258000    296.30316   -18377.307    55.113973   -18322.193 
  259000    299.17367   -18382.306    55.647903   -18326.658 
  260000    294.01255   -18381.262    54.687907   -18326.574 
  261000     304.9728   -18380.938    56.726572   -18324.211 
  262000    300.59892   -18384.242    55.913007   -18328.329 
  263000    289.96191   -18380.624    53.934465    -18326.69 
  264000     304.3253    -18378.85    56.606134   -18322.244 
  265000    299.81678   -18382.793    55.767525   -18327.026 
  266000    304.29124   -18381.557    56.599798   -18324.957 
  267000    295.30241   -18381.777    54.927828   -18326.849 
  268000    295.04926   -18384.534    54.880741   -18329.654 
  269000    295.57468   -18375.985    54.978472   -18321.007 
  270000    305.96163   -18378.568      56.9105   -18321.657 
  271000    301.10944   -18380.518    56.007966    -18324.51 
  272000    294.71617   -18372.628    54.818783   -18317.809 
  273000    301.65923   -18373.998    56.110231   -18317.888 
  274000    297.58291   -18380.745    55.352014   -18325.393 
  275000    295.95702   -18383.499    55.049588    -18328.45 
  276000    301.13926   -18379.989    56.013513   -18323.976 
  277000    302.44192   -18381.188    56.255815   -18324.932 
  278000      303.549   -18374.534    56.461738   -18318.072 
  279000    301.92252   -18384.528    56.159204   -18328.368 
  280000    296.98892   -18383.556    55.241527   -18328.315 
  281000    299.61659   -18376.822    55.730288   -18321.092 
  282000    292.82769   -18376.459    54.467517   -18321.991 
  283000    297.46398   -18374.914    55.329892   -18319.584 
  284000    298.86525   -18379.281    55.590535    -18323.69 
  285000    301.54553   -18386.047    56.089082   -18329.958 
  286000    298.50171   -18381.195    55.522915   -18325.672 
  287000    304.65482   -18387.475    56.667427   -18330.807 
  288000    298.78599   -18376.744    55.575793   -18321.169 
  289000    301.07131   -18380.309    56.000875   -18324.308 
  290000    308.44024   -18379.019    57.371534   -18321.648 
  291000    291.77451   -18377.367    54.271619   -18323.095 
  292000    296.42539    -18379.97    55.136707   -18324.833 
  293000    295.51498   -18377.134    54.967366   -18322.167 
  294000     296.4451   -18384.926    55.140375   -18329.786 
  295000     297.8633   -18377.982    55.404167   -18322.578 
  296000    298.09187   -18380.769    55.446681   -18325.322 
  297000    295.45355   -18374.159     54.95594   -18319.203 
  298000    295.35252   -18381.362    54.937148   -18326.425 
  299000    306.21996   -18377.735     56.95855   -18320.777 
  300000    297.74872   -18385.676    55.382854   -18330.293 
  301000    302.83165   -18382.041    56.328307   -18325.712 
  302000    307.70801    -18381.43    57.235335   -18324.194 
  303000    293.80578   -18377.309    54.649447    -18322.66 
  304000    302.44682   -18373.805    56.256726   -18317.549 
  305000    300.56684    -18376.79    55.907039   -18320.883 
  306000    299.16063   -18373.805    55.645478   -18318.159 
  307000    300.87986   -18373.498    55.965263   -18317.532 
  308000    302.89799   -18381.122    56.340647   -18324.782 
  309000    300.04411   -18381.669     55.80981   -18325.859 
  310000    300.53078   -18376.596    55.900332   -18320.695 
  311000    304.79934   -18372.824    56.694308    -18316.13 
  312000    295.36059   -18383.015    54.938649   -18328.077 
  313000    299.22391    -18373.82    55.657248   -18318.163 
  314000    297.67769   -18375.144    55.369642   -18319.775 
  315000    296.57197   -18379.228    55.163972   -18324.064 
  316000      293.845   -18376.822    54.656742   -18322.166 
  317000    305.95998   -18373.811    56.910193     -18316.9 
  318000     306.9337   -18377.595    57.091309   -18320.503 
  319000     297.3083    -18379.78    55.300934   -18324.479 
  320000    304.73836   -18380.286    56.682964   -18323.604 
  321000    309.53843   -18380.986    57.575804    -18323.41 
  322000    295.06405   -18377.663    54.883491   -18322.779 
  323000    285.55898   -18378.056    53.115498    -18324.94 
  324000    298.08535    -18377.86    55.445469   -18322.415 
  325000    301.83738   -18383.966    56.143367   -18327.823 
  326000    302.11468   -18379.938    56.194946   -18323.743 
  327000    309.03651   -18383.488    57.482444   -18326.005 
  328000    302.59344   -18378.212    56.283998   -18321.928 
  329000    303.01574   -18383.394    56.362548   -18327.032 
  330000    296.77645    -18372.69    55.202007   -18317.488 
  331000    293.04424   -18383.306    54.507796   -18328.798 
  332000    302.94193   -18380.557     56.34882   -18324.208 
  333000    309.78237    -18377.83    57.621177   -18320.209 
  334000    293.68091    -18375.98     54.62622   -18321.354 
  335000    299.30573   -18381.102    55.672467   -18325.429 
  336000    296.17777    -18374.75    55.090649   -18319.659 
  337000     298.5395    -18383.82    55.529943    -18328.29 
  338000    302.84427   -18378.483    56.330653   -18322.153 
  339000    299.55386   -18375.673    55.718621   -18319.954 
  340000    304.67653   -18380.142    56.671464    -18323.47 
  341000    300.84269   -18375.345     55.95835   -18319.386 
  342000    290.93803   -18373.238    54.116029   -18319.121 
  343000    301.42757   -18375.624     56.06714   -18319.557 
  344000     297.7223   -18379.628    55.377941    -18324.25 
  345000    295.78541   -18376.288    55.017668   -18321.271 
  346000    296.05358   -18378.888    55.067548   -18323.821 
  347000    297.03711   -18374.555    55.250491   -18319.304 
  348000    305.26627    -18378.81    56.781158   -18322.029 
  349000    302.49131   -18372.571    56.265001   -18316.306 
  350000    300.22837   -18375.587    55.844083   -18319.743 
  351000    304.85791   -18374.239    56.705201   -18317.533 
  352000     301.3094   -18375.973     56.04516   -18319.928 
  353000    299.76792    -18371.32    55.758437   -18315.562 
  354000    297.19049   -18372.068    55.279021   -18316.789 
  355000    302.43801   -18375.249    56.255087   -18318.994 
  356000    294.07624   -18371.147    54.699753   -18316.447 
  357000     301.8537   -18373.222    56.146402   -18317.075 
  358000    299.81311   -18377.726    55.766842   -18321.959 
  359000    303.26946   -18374.167    56.409742   -18317.758 
  360000    294.97223   -18378.305    54.866412   -18323.439 
  361000    306.66149   -18381.224    57.040678   -18324.183 
  362000    298.26984   -18373.627    55.479786   -18318.147 
  363000    298.28174   -18381.268    55.481999   -18325.786 
  364000    297.10269   -18378.159    55.262689   -18322.897 
  365000    300.10799   -18377.972    55.821692    -18322.15 
  366000    296.20619   -18384.183    55.095936   -18329.087 
  367000    297.74764   -18380.028    55.382654   -18324.645 
  368000    298.11574   -18373.353    55.451123   -18317.901 
  369000      289.866   -18383.936    53.916627   -18330.019 
  370000    300.30658   -18381.736     55.85863   -18325.877 
  371000    290.99955   -18378.848    54.127472    -18324.72 
  372000    306.40901   -18374.875    56.993715   -18317.881 
  373000    302.11173   -18375.654    56.194397    -18319.46 
  374000    293.41102   -18381.452     54.57602   -18326.876 
  375000    305.56802   -18376.729    56.837287   -18319.892 
  376000    288.05567   -18378.942    53.579896   -18325.362 
  377000     294.1479   -18372.647    54.713083   -18317.934 
  378000    295.68696   -18376.452    54.999355   -18321.452 
  379000    296.56294   -18372.597    55.162293   -18317.435 
  380000    298.89438    -18372.82    55.595953   -18317.224 
  381000    303.60889   -18378.312    56.472878   -18321.839 
  382000    296.95262   -18383.745    55.234776    -18328.51 
  383000    312.16222   -18377.118    58.063842   -18319.054 
  384000    298.71614   -18377.349    55.562799   -18321.786 
  385000    296.13548   -18377.394    55.082783   -18322.312 
  386000    303.60051   -18378.412    56.471318   -18321.941 
  387000    293.85503   -18379.376    54.658606   -18324.717 
  388000    296.83846     -18379.8    55.213542   -18324.587 
  389000     298.8834   -18370.422     55.59391   -18314.828 
  390000    299.09186    -18378.35    55.632686   -18322.717 
  391000    295.37302   -18376.684    54.940962   -18321.743 
  392000    306.46091   -18372.375    57.003369   -18315.372 
  393000    298.52911   -18374.956    55.528012   -18319.428 
  394000    299.47282    -18379.97    55.703546   -18324.266 
  395000    299.84181   -18373.547     55.77218   -18317.775 
  396000    302.32047   -18374.776    56.233224   -18318.543 
  397000    295.98673   -18380.947    55.055115   -18325.891 
  398000     306.6857   -18379.834    57.045181   -18322.789 
  399000     300.0371   -18379.027    55.808506   -18323.219 
  400000    301.62641   -18376.574    56.104126    -18320.47 
  401000    294.79564   -18375.022    54.833565   -18320.189 
  402000    304.90701   -18379.237    56.714335   -18322.522 
  403000    297.09566   -18375.127    55.261382   -18319.866 
  404000    301.44305   -18378.756    56.070019   -18322.686 
  405000    306.31093   -18381.897    56.975471   -18324.921 
  406000    299.77491    -18374.55    55.759737    -18318.79 
  407000    302.90337   -18379.604    56.341648   -18323.262 
  408000    302.58518   -18375.637    56.282463   -18319.354 
  409000    299.65599   -18374.281    55.737618   -18318.544 
  410000    303.16076   -18374.535    56.389522   -18318.145 
  411000    304.20067   -18378.918    56.582952   -18322.335 
  412000    295.65251   -18375.075    54.992948   -18320.083 
  413000    293.32725   -18380.038    54.560438   -18325.478 
  414000    296.46026   -18375.262    55.143193   -18320.119 
  415000    307.87193   -18377.269    57.265825   -18320.003 
  416000    302.52417   -18375.092    56.271113   -18318.821 
  417000     299.0074   -18373.279    55.616975   -18317.662 
  418000     288.2092   -18373.446    53.608453   -18319.838 
  419000    303.69575    -18370.58    56.489035   -18314.091 
  420000     291.1989   -18364.045    54.164553   -18309.881 
  421000    302.48037   -18375.128    56.262966   -18318.865 
  422000    303.66275   -18381.986    56.482896   -18325.503 
  423000    305.20063   -18385.185     56.76895   -18328.416 
  424000    300.02112   -18377.131    55.805533   -18321.325 
  425000    297.80586   -18379.875    55.393483   -18324.481 
  426000    297.48439   -18377.947    55.333687   -18322.614 
  427000    298.97711   -18381.187    55.611341   -18325.575 
  428000    295.49243   -18374.592    54.963172   -18319.629 
  429000     296.8343   -18369.912    55.212768   -18314.699 
  430000    302.97429   -18378.376    56.354839   -18322.021 
  431000    294.91547   -18374.439    54.855855   -18319.583 
  432000    303.70621   -18380.512    56.490979   -18324.021 
  433000    300.64481   -18382.949    55.921542   -18327.027 
  434000    311.59246   -18371.183    57.957864   -18313.225 
  435000    294.11439   -18381.814     54.70685   -18327.107 
  436000    293.77797   -18377.732    54.644274   -18323.087 
  437000      301.586   -18382.995     56.09661   -18326.898 
  438000    303.63095   -18379.687    56.476982    -18323.21 
  439000    296.10662   -18370.914    55.077415   -18315.836 
  440000    300.29522   -18379.587    55.856518   -18323.731 
  441000    303.07695   -18379.186    56.373933   -18322.812 
  442000    294.05068   -18378.108    54.694998   -18323.413 
  443000    304.62016   -18377.493    56.660979   -18320.832 
  444000    295.70446   -18371.952     55.00261    -18316.95 
  445000    297.39033   -18375.039    55.316193   -18319.723 
  446000    298.47253   -18376.397    55.517487    -18320.88 
  447000    304.22171   -18372.386    56.586866   -18315.799 
  448000    300.95981   -18375.271    55.980135   -18319.291 
  449000    299.22247   -18377.521     55.65698   -18321.864 
  450000    294.90609   -18375.769     54.85411   -18320.915 
  451000    302.49013   -18371.831    56.264782   -18315.566 
  452000    299.91743   -18374.902    55.786247   -18319.116 
  453000    295.14806   -18376.232    54.899117   -18321.333 
  454000    299.90885   -18379.756    55.784651   -18323.971 
  455000    302.78762   -18376.541    56.320117   -18320.221 
  456000    300.98419    -18375.41    55.984669   -18319.426 
  457000    290.72186   -18374.827    54.075821   -18320.751 
  458000    312.17277   -18376.416    58.065805    -18318.35 
  459000    306.48142   -18379.234    57.007184   -18322.227 
  460000    297.76292   -18373.046    55.385496   -18317.661 
  461000    301.11112   -18373.663    56.008279   -18317.655 
  462000    297.29029    -18376.65    55.297585   -18321.353 
  463000     302.4794   -18378.666    56.262787   -18322.403 
  464000    295.02293   -18377.159    54.875843   -18322.283 
  465000     292.5147   -18369.812    54.409299   -18315.402 
  466000    305.44385   -18377.418     56.81419   -18320.604 
  467000    299.33858   -18378.716    55.678577   -18323.038 
  468000    301.53665   -18379.382    56.087429   -18323.294 
  469000    301.37896   -18376.526    56.058099   -18320.468 
  470000    292.88378    -18374.64    54.477949   -18320.162 
  471000     311.0985   -18380.385    57.865984   -18322.519 
  472000    298.69745   -18379.538    55.559323   -18323.979 
  473000    301.76868   -18372.935    56.130588   -18316.804 
  474000    295.83901   -18380.419    55.027638   -18325.391 
  475000    301.25864   -18377.023    56.035718   -18320.987 
  476000    307.29641   -18375.346    57.158777   -18318.187 
  477000    296.53979    -18376.67    55.157988   -18321.512 
  478000    298.02255    -18374.77    55.433788   -18319.336 
  479000    295.37412   -18374.363    54.941167   -18319.422 
  480000    302.31539   -18379.886     56.23228   -18323.654 
  481000    301.72166   -18380.635    56.121843   -18324.513 
  482000    297.09907   -18374.752    55.262017    -18319.49 
  483000    296.50093   -18379.535     55.15076   -18324.385 
  484000    303.41139   -18379.405    56.436141   -18322.969 
  485000    296.24097   -18373.548    55.102405   -18318.445 
  486000    301.45033   -18375.446    56.071373   -18319.375 
  487000    301.07422   -18375.202    56.001416   -18319.201 
  488000    309.57184   -18381.297    57.582019   -18323.715 
  489000     299.4228   -18379.774    55.694243   -18324.079 
  490000    305.30935   -18374.621    56.789173   -18317.832 
  491000    303.26521   -18381.252     56.40895   -18324.843 
  492000    301.25017   -18373.187    56.034143   -18317.153 
  493000    302.03733   -18380.221    56.180559   -18324.041 
  494000      295.726    -18372.52    55.006617   -18317.513 
  495000    294.44826   -18374.046     54.76895   -18319.277 
  496000    307.66905    -18379.52    57.228088   -18322.292 
  497000    307.25511   -18377.424    57.151094   -18320.273 
  498000    304.25501   -18373.371    56.593059   -18316.778 
  499000    300.64438   -18377.014    55.921462   -18321.092 
  500000    306.77266   -18382.173    57.061355   -18325.112 
  501000    302.51025   -18375.237    56.268524   -18318.969 
  502000    296.89322   -18383.431    55.223727   -18328.207 
  503000    302.43463   -18374.939    56.254459   -18318.684 
  504000    302.07723    -18377.57     56.18798   -18321.382 
  505000    309.91758   -18381.545    57.646328   -18323.898 
  506000    298.63284   -18372.301    55.547305   -18316.753 
  507000    302.48545   -18381.038    56.263912   -18324.774 
  508000    302.19445   -18375.578    56.209784   -18319.368 
  509000    301.43971   -18369.915    56.069398   -18313.845 
  510000    296.95123   -18368.692    55.234518   -18313.458 
  511000    297.51821   -18372.983    55.339978   -18317.643 
  512000    299.72592   -18380.714    55.750624   -18324.963 
  513000    300.94376   -18380.588     55.97715    -18324.61 
  514000    296.22509   -18376.146    55.099451   -18321.047 
  515000    290.73455   -18373.359    54.078182   -18319.281 
  516000    305.93125   -18379.528    56.904849   -18322.623 
  517000    311.54855   -18382.043    57.949696   -18324.094 
  518000    295.04093   -18379.247     54.87919   -18324.368 
  519000    304.54359   -18378.624    56.646737   -18321.978 
  520000    300.72968   -18376.081    55.937329   -18320.144 
  521000    294.14038   -18376.377    54.711685   -18321.665 
  522000    294.12858   -18376.451    54.709489   -18321.742 
  523000    298.15114   -18378.118    55.457706   -18322.661 
  524000    294.69269   -18378.965    54.814417   -18324.151 
  525000    302.48304   -18376.954    56.263464   -18320.691 
  526000    296.01904   -18375.969    55.061124   -18320.908 
  527000     298.7161   -18371.078    55.562792   -18315.515 
  528000    300.89957   -18380.014    55.968929   -18324.045 
  529000    297.02066   -18370.421    55.247432   -18315.174 
  530000    301.46034   -18379.614    56.073235   -18323.541 
  531000    304.35435   -18377.298    56.611537   -18320.687 
  532000    302.10235   -18380.052    56.192653    -18323.86 
  533000    301.33344   -18377.874    56.049632   -18321.825 
  534000    307.66208   -18376.837    57.226792    -18319.61 
  535000    307.19053   -18383.239    57.139081     -18326.1 
  536000    306.11894   -18383.072     56.93976   -18326.133 
  537000    309.89239   -18370.617    57.641641   -18312.975 
  538000    295.56089   -18378.184    54.975906   -18323.209 
  539000    301.90038   -18372.431    56.155085   -18316.276 
  540000    303.41985   -18373.981    56.437716   -18317.544 
  541000    308.94819   -18378.061    57.466016   -18320.595 
  542000    306.63008   -18377.686    57.034835   -18320.651 
  543000    295.99162   -18376.765    55.056024   -18321.709 
  544000    292.88913   -18373.789    54.478945    -18319.31 
  545000    297.35852   -18374.871    55.310275   -18319.561 
  546000    294.76074   -18374.185    54.827074   -18319.358 
  547000    294.91182   -18372.641    54.855175   -18317.786 
  548000    306.06367   -18373.133    56.929479   -18316.203 
  549000    301.14409   -18377.314    56.014412   -18321.299 
  550000     304.6568   -18374.917    56.667795   -18318.249 
  551000     302.1877   -18376.914    56.208529   -18320.705 
  552000    303.75001   -18374.572    56.499127   -18318.073 
  553000    294.96546   -18377.015    54.865154    -18322.15 
  554000    311.09055   -18378.459    57.864506   -18320.594 
  555000    303.52783   -18372.894    56.457799   -18316.437 
  556000    301.91409    -18376.55    56.157636   -18320.392 
  557000    299.90647   -18372.667    55.784207   -18316.883 
  558000    300.28862   -18374.868     55.85529   -18319.013 
  559000    296.65771   -18375.735     55.17992   -18320.556 
  560000     306.9795   -18373.255    57.099828   -18316.155 
  561000    305.72082   -18377.687    56.865708   -18320.821 
  562000    301.05352   -18374.671    55.997566   -18318.673 
  563000     304.6164   -18379.853    56.660279   -18323.193 
  564000    308.75761   -18375.006    57.430568   -18317.575 
  565000    293.79734   -18378.995    54.647877   -18324.347 
  566000    298.28901   -18379.925    55.483351   -18324.442 
  567000    292.34732   -18381.551    54.378165   -18327.173 
  568000    305.56751    -18380.29    56.837192   -18323.453 
  569000    291.61895   -18382.329    54.242685   -18328.086 
  570000    300.37545   -18381.477     55.87144   -18325.606 
  571000    306.11861   -18377.537    56.939699   -18320.597 
  572000    302.75362   -18379.419    56.313793   -18323.106 
  573000    296.61558   -18377.389    55.172084   -18322.217 
  574000    310.32697   -18382.955    57.722475   -18325.232 
  575000    309.99587   -18378.082     57.66089   -18320.421 
  576000    294.98766   -18382.597    54.869282   -18327.727 
  577000    298.73292   -18373.843    55.565921   -18318.277 
  578000    296.36789   -18385.373    55.126012   -18330.247 
  579000    301.41174   -18377.216    56.064195   -18321.152 
  580000    299.21405   -18377.899    55.655414   -18322.244 
  581000     299.4915   -18377.814    55.707021   -18322.107 
  582000    295.99149   -18376.702    55.056001   -18321.646 
  583000    299.46433   -18374.566    55.701966   -18318.864 
  584000    298.74271   -18378.221    55.567741   -18322.653 
  585000    294.56065   -18375.324    54.789856   -18320.535 
  586000    294.79996   -18374.955     54.83437   -18320.121 
  587000    291.52216   -18375.962    54.224681   -18321.737 
  588000    306.09397   -18380.669    56.935116   -18323.734 
  589000    299.94177   -18379.509    55.790773   -18323.719 
  590000    304.91016   -18370.006    56.714921   -18313.291 
  591000    296.83248   -18380.291    55.212429   -18325.079 
  592000     296.5613   -18370.842    55.161988    -18315.68 
  593000    298.36888   -18383.003    55.498208   -18327.505 
  594000     297.0204   -18380.093    55.247383   -18324.846 
  595000     294.8594   -18375.976    54.845426    -18321.13 
  596000    303.11167   -18379.165    56.380392   -18322.785 
  597000    299.56804    -18377.39    55.721257   -18321.669 
  598000     300.0935   -18383.407    55.818996   -18327.588 
  599000    290.06391   -18378.304    53.953439    -18324.35 
  600000    299.51085   -18378.814     55.71062   -18323.103 
  601000    297.19279   -18371.401    55.279449   -18316.122 
  602000    297.93287   -18385.667    55.417107    -18330.25 
  603000    300.59373   -18377.558    55.912042   -18321.646 
  604000    298.68561   -18374.227    55.557122    -18318.67 
  605000     297.8856   -18385.334    55.408315   -18329.926 
  606000    298.11485   -18377.145    55.450956   -18321.695 
  607000    295.59934   -18378.794    54.983058   -18323.811 
  608000    295.86898   -18377.311    55.033212   -18322.278 
  609000    298.82696   -18378.894    55.583414   -18323.311 
  610000    293.13732   -18376.303     54.52511   -18321.777 
  611000    303.64134   -18376.665    56.478914   -18320.186 
  612000    299.20537   -18371.888    55.653798   -18316.234 
  613000    304.47109   -18380.426    56.633252   -18323.793 
  614000    298.01077    -18374.82    55.431596   -18319.388 
  615000     294.5214   -18376.356    54.782555   -18321.574 
  616000     305.3788   -18381.658    56.802091   -18324.856 
  617000    297.89202   -18378.149     55.40951    -18322.74 
  618000     299.7346    -18378.93    55.752239   -18323.178 
  619000    304.30782   -18375.904    56.602882   -18319.301 
  620000    304.26901   -18375.485    56.595663    -18318.89 
  621000    298.33565   -18374.008    55.492026   -18318.516 
  622000    292.44698   -18380.656    54.396703   -18326.259 
  623000    287.81787   -18381.866    53.535663    -18328.33 
  624000    302.64834   -18380.559     56.29421   -18324.265 
  625000    300.68798   -18381.261    55.929572   -18325.332 
  626000    299.70435   -18372.513    55.746612   -18316.767 
  627000    290.16635   -18376.251    53.972492   -18322.278 
  628000      299.617   -18384.328    55.730365   -18328.598 
  629000    298.62765    -18371.73     55.54634   -18316.183 
  630000    294.21855   -18379.511    54.726223   -18324.785 
  631000    293.57951   -18379.277    54.607359    -18324.67 
  632000    302.92207   -18379.623    56.345125   -18323.278 
  633000     300.8623   -18374.059    55.961998   -18318.097 
  634000    295.61389   -18372.133    54.985765   -18317.147 
  635000    297.50057    -18381.01    55.336697   -18325.674 
  636000    293.66498   -18377.348    54.623256   -18322.725 
  637000    294.78475   -18382.097    54.831541   -18327.265 
  638000     297.0078   -18373.763     55.24504   -18318.518 
  639000    294.77572   -18373.466    54.829861   -18318.636 
  640000    295.00716   -18376.033     54.87291    -18321.16 
  641000    303.45501   -18379.761    56.444254   -18323.317 
  642000    289.36977   -18380.057    53.824326   -18326.233 
  643000     304.7074   -18378.878    56.677206   -18322.201 
  644000    296.70467   -18382.555    55.188656   -18327.366 
  645000    295.06351   -18383.257    54.883391   -18328.373 
  646000    298.06669    -18379.06    55.441999   -18323.618 
  647000    300.39008   -18379.071    55.874162   -18323.197 
  648000    292.58586   -18373.282    54.422534   -18318.859 
  649000    297.58123   -18376.661      55.3517   -18321.309 
  650000    305.62067   -18376.973    56.847079   -18320.125 
  651000    291.04866   -18378.916    54.136607    -18324.78 
  652000     306.0752    -18385.85    56.931624   -18328.919 
  653000    301.58768   -18379.601    56.096922   -18323.504 
  654000    297.05202   -18372.626    55.253265   -18317.373 
  655000    300.44951   -18377.301    55.885217   -18321.416 
  656000    294.92754   -18380.492      54.8581   -18325.634 
  657000    302.67279   -18386.403    56.298758   -18330.104 
  658000    296.71095   -18378.508    55.189825   -18323.318 
  659000    302.94782   -18379.577    56.349916   -18323.227 
  660000    302.03771   -18379.941    56.180629   -18323.761 
  661000    300.17537   -18379.095    55.834225   -18323.261 
  662000    301.58425   -18377.045    56.096283   -18320.949 
  663000    300.20828   -18375.245    55.840346   -18319.405 
  664000    311.43993   -18385.474    57.929492   -18327.544 
  665000    298.31685   -18379.714    55.488529   -18324.225 
  666000    298.75933   -18380.879    55.570834   -18325.308 
  667000    299.51794   -18377.844    55.711939   -18322.132 
  668000    301.98571   -18376.866    56.170957   -18320.695 
  669000    305.42627   -18380.565    56.810919   -18323.754 
  670000    292.30716    -18375.93    54.370695   -18321.559 
  671000    302.40315   -18381.306    56.248604   -18325.057 
  672000    299.21547   -18379.835    55.655678    -18324.18 
  673000    294.40501   -18383.044    54.760906   -18328.284 
  674000     305.2178   -18380.353    56.772143   -18323.581 
  675000    290.20803   -18376.572    53.980246   -18322.592 
  676000    302.70477   -18380.779    56.304706   -18324.474 
  677000    290.10533   -18375.295    53.961144   -18321.334 
  678000    296.35322   -18378.678    55.123285   -18323.555 
  679000    306.91253   -18379.769    57.087372   -18322.681 
  680000    293.61613   -18378.846    54.614171   -18324.232 
  681000    306.47713   -18378.636    57.006385    -18321.63 
  682000    302.52732   -18379.981    56.271699   -18323.709 
  683000    297.93531    -18381.75    55.417561   -18326.333 
  684000    298.09698    -18388.84    55.447632   -18333.393 
  685000    303.76328   -18380.359    56.501594   -18323.857 
  686000    302.29117   -18379.516    56.227775   -18323.288 
  687000    298.90743   -18382.461    55.598381   -18326.863 
  688000    298.73523   -18382.441     55.56635   -18326.875 
  689000    305.48231   -18382.979    56.821344   -18326.157 
  690000    299.83185    -18381.17    55.770328     -18325.4 
  691000     308.9544   -18383.812    57.467171   -18326.345 
  692000    301.23086   -18378.524    56.030551   -18322.493 
  693000    297.04112   -18386.845    55.251237   -18331.593 
  694000    295.37175   -18374.857    54.940726   -18319.916 
  695000    307.80565   -18382.836    57.253497   -18325.583 
  696000    296.95909   -18383.308    55.235979   -18328.072 
  697000    298.48797   -18373.791    55.520359    -18318.27 
  698000     298.3467   -18382.758    55.494082   -18327.263 
  699000    297.68802   -18383.744    55.371563   -18328.372 
  700000    292.97004   -18378.567    54.493995   -18324.073 
  701000    296.11329   -18381.683    55.078656   -18326.605 
  702000    302.92204   -18380.459     56.34512   -18324.114 
  703000    310.17211   -18380.375    57.693672   -18322.681 
  704000    299.83105   -18378.801    55.770179    -18323.03 
  705000    300.23074   -18383.633    55.844523   -18327.788 
  706000    299.14429   -18378.192    55.642438    -18322.55 
  707000    306.33839   -18382.648    56.980579   -18325.668 
  708000    295.55089   -18383.193    54.974047   -18328.219 
  709000    300.10279   -18379.281    55.820724    -18323.46 
  710000    305.59731   -18378.752    56.842733   -18321.909 
  711000    301.66628   -18377.783    56.111541   -18321.672 
  712000     304.9924   -18377.039    56.730218   -18320.309 
  713000    305.83646   -18386.903    56.887216   -18330.016 
  714000    307.95809   -18380.159    57.281852   -18322.877 
  715000    299.12016   -18378.767     55.63795   -18323.129 
  716000    304.21473   -18378.094    56.585567   -18321.509 
  717000    294.57913   -18385.375    54.793294   -18330.582 
  718000    295.99619   -18384.863    55.056875   -18329.806 
  719000    301.76728    -18384.62    56.130329    -18328.49 
  720000    295.00493   -18381.047    54.872496   -18326.175 
  721000    302.49014   -18381.478    56.264784   -18325.213 
  722000    296.09732   -18377.555    55.075685    -18322.48 
  723000    299.32243   -18378.727    55.675573   -18323.051 
  724000    305.67083   -18380.768    56.856409   -18323.911 
  725000    297.92707   -18378.814    55.416029   -18323.398 
  726000    302.27541   -18381.395    56.224843    -18325.17 
  727000    295.29916   -18384.221    54.927224   -18329.293 
  728000    308.54593   -18382.113    57.391193   -18324.722 
  729000    304.07001   -18375.159    56.558649     -18318.6 
  730000    303.87644    -18380.19    56.522643   -18323.668 
  731000    306.75335   -18380.304    57.057764   -18323.246 
  732000    302.12861   -18377.616    56.197538   -18321.419 
  733000    298.84537   -18384.978    55.586838   -18329.391 
  734000    301.85259   -18380.008    56.146196   -18323.862 
  735000    302.64169   -18380.928    56.292974   -18324.635 
  736000    301.51346   -18381.626    56.083116   -18325.543 
  737000    299.66389   -18387.577    55.739087   -18331.838 
  738000    302.86907   -18384.286    56.335266   -18327.951 
  739000    296.47864   -18378.005    55.146612   -18322.859 
  740000     301.7566   -18381.038    56.128341   -18324.909 
  741000      298.106   -18376.715     55.44931   -18321.266 
  742000    296.05419   -18378.594    55.067663   -18323.526 
  743000    301.65685   -18376.308    56.109788   -18320.198 
  744000    304.08903   -18377.886    56.562186   -18321.324 
  745000    302.41932   -18380.416    56.251611   -18324.164 
  746000    306.28235   -18378.002    56.970156   -18321.032 
  747000    304.49945   -18383.427    56.638527   -18326.788 
  748000    298.05873   -18384.526    55.440518   -18329.086 
  749000    304.30573   -18374.902    56.602494     -18318.3 
  750000     306.3661   -18377.275    56.985733   -18320.289 
  751000    298.63312    -18374.99    55.547357   -18319.443 
  752000    297.55407   -18374.328    55.346648   -18318.982 
  753000    299.00089   -18380.312    55.615765   -18324.696 
  754000    302.80678   -18379.708    56.323681   -18323.384 
  755000    300.62807   -18378.793    55.918429   -18322.874 
  756000    304.74444   -18381.413    56.684096   -18324.729 
  757000    302.43261   -18381.691    56.254082   -18325.437 
  758000    290.08593   -18374.599    53.957535   -18320.641 
  759000    303.35781   -18376.895    56.426176   -18320.469 
  760000     291.6658   -18385.311    54.251399    -18331.06 
  761000    302.53132   -18383.832    56.272443    -18327.56 
  762000    295.68171   -18383.047     54.99838   -18328.049 
  763000    303.55381   -18379.426    56.462633   -18322.964 
  764000    292.30012   -18382.873    54.369386   -18328.504 
  765000    309.33541   -18380.584     57.53804   -18323.046 
  766000    305.78301   -18378.693    56.877276   -18321.816 
  767000    297.75082   -18381.516    55.383244   -18326.132 
  768000     299.5484   -18386.241    55.717604   -18330.523 
  769000     301.8615   -18381.924    56.147854   -18325.776 
  770000     292.2642   -18381.655    54.362705   -18327.292 
  771000    302.86569   -18386.806    56.334639   -18330.472 
  772000    306.18887   -18385.316    56.952767   -18328.363 
  773000    302.46703   -18382.744    56.260485   -18326.484 
  774000    301.75205    -18385.92    56.127495   -18329.792 
  775000    306.17918   -18382.811    56.950965    -18325.86 
  776000     304.2668   -18381.661    56.595252   -18325.066 
  777000    298.46415    -18383.68    55.515928   -18328.164 
  778000    306.01305   -18386.706    56.920064   -18329.786 
  779000    304.24114   -18384.192     56.59048   -18327.602 
  780000    299.07227   -18384.152    55.629041   -18328.523 
  781000    298.80104   -18383.804    55.578591   -18328.226 
  782000    297.70503   -18378.091    55.374727   -18322.716 
  783000    306.67319   -18385.107    57.042854   -18328.064 
  784000    301.02385   -18382.122    55.992046    -18326.13 
  785000    294.72385   -18382.081    54.820213   -18327.261 
  786000    298.88776    -18381.19    55.594722   -18325.596 
  787000    293.23291   -18383.772    54.542889   -18329.229 
  788000    298.18727   -18385.218    55.464427   -18329.754 
  789000    302.60579   -18380.237    56.286296    -18323.95 
  790000    295.50945   -18381.959    54.966338   -18326.993 
  791000    302.81276   -18379.986    56.324793   -18323.662 
  792000     295.6985   -18382.359    55.001503   -18327.357 
  793000    295.02823   -18378.039    54.876829   -18323.162 
  794000    293.34634   -18384.943    54.563987   -18330.379 
  795000    304.20968   -18376.331    56.584628   -18319.746 
  796000    302.00812   -18380.045    56.175126    -18323.87 
  797000    298.61803   -18384.128     55.54455   -18328.583 
  798000    297.67565   -18390.008    55.369263   -18334.639 
  799000    295.82867   -18388.287    55.025715   -18333.261 
  800000    299.08184   -18376.673    55.630823   -18321.043 
  801000    292.63063   -18385.403    54.430862   -18330.972 
  802000    295.89527   -18389.729    55.038103   -18334.691 
  803000    297.75983   -18380.831    55.384921   -18325.446 
  804000    306.40197   -18382.293    56.992405   -18325.301 
  805000    294.21607   -18377.737    54.725763   -18323.011 
  806000    299.39238   -18377.683    55.688584   -18321.994 
  807000    306.59027    -18384.87     57.02743   -18327.843 
  808000    299.63061   -18385.899    55.732897   -18330.166 
  809000    294.95928   -18380.221    54.864003   -18325.357 
  810000    297.69888   -18375.503    55.373584   -18320.129 
  811000    308.43537   -18381.553    57.370628   -18324.182 
  812000    299.49213   -18379.659    55.707138   -18323.952 
  813000    300.39839   -18381.634    55.875707   -18325.758 
  814000    293.23564   -18376.866    54.543397   -18322.322 
  815000    300.42303   -18377.609    55.880291   -18321.728 
  816000    305.38484   -18382.121    56.803214   -18325.318 
  817000    299.56594    -18382.13    55.720868   -18326.409 
  818000     299.9466    -18383.73    55.791673   -18327.938 
  819000    301.13271     -18379.1    56.012296   -18323.088 
  820000    302.20704     -18386.7    56.212127   -18330.488 
  821000    301.44903   -18377.428    56.071132   -18321.357 
  822000    295.42392   -18385.895    54.950428   -18330.944 
  823000    295.93582   -18374.975    55.045646    -18319.93 
  824000    299.43875   -18381.998    55.697209     -18326.3 
  825000    293.46166    -18383.59    54.585439   -18329.004 
  826000    299.04008   -18380.717    55.623054   -18325.094 
  827000     294.4048   -18382.091    54.760868    -18327.33 
  828000    304.61016   -18379.887    56.659119   -18323.228 
  829000    300.23348   -18386.009    55.845033   -18330.164 
  830000    305.33514   -18384.262    56.793969   -18327.468 
  831000    300.95722   -18385.876    55.979652   -18329.896 
  832000    302.03444   -18382.337    56.180022   -18326.157 
  833000    290.02387   -18380.561    53.945991   -18326.615 
  834000    303.84992   -18378.251     56.51771   -18321.733 
  835000    300.22436   -18380.332    55.843337   -18324.489 
  836000    296.84438   -18385.396    55.214643   -18330.182 
  837000    299.85357   -18380.197    55.774368   -18324.423 
  838000    298.66381   -18384.498    55.553066   -18328.945 
  839000     308.6183   -18381.418    57.404654   -18324.013 
  840000    292.77932   -18380.828    54.458519    -18326.37 
  841000    299.34027   -18383.696    55.678891   -18328.017 
  842000    298.27186   -18387.409    55.480162   -18331.929 
  843000      298.147    -18381.25    55.456936   -18325.793 
  844000    300.02664   -18380.807     55.80656       -18325 
  845000    303.49684   -18383.418    56.452036   -18326.966 
  846000    299.97399   -18383.685    55.796766   -18327.888 
  847000    299.54636   -18377.751    55.717224   -18322.034 
  848000    296.48962   -18386.148    55.148654       -18331 
  849000    302.03267   -18382.411    56.179692   -18326.231 
  850000    298.71574   -18384.348    55.562725   -18328.785 
  851000    300.08624   -18380.615    55.817646   -18324.798 
  852000    300.83498   -18384.877    55.956915    -18328.92 
  853000    303.94423   -18388.979    56.535252   -18332.444 
  854000    298.47035   -18383.429    55.517082   -18327.911 
  855000    295.56733    -18387.25    54.977103   -18332.273 
  856000    296.15471   -18383.793     55.08636   -18328.707 
  857000    303.72485   -18388.767    56.494446   -18332.272 
  858000    299.43354   -18381.022     55.69624   -18325.326 
  859000    303.10224   -18383.754    56.378638   -18327.375 
  860000    304.60984   -18380.446    56.659059   -18323.787 
  861000    300.99469   -18381.059    55.986622   -18325.072 
  862000    295.28137   -18384.838    54.923914   -18329.915 
  863000    299.08171   -18377.473    55.630798   -18321.842 
  864000    295.46919   -18385.618    54.958849   -18330.659 
  865000    303.65036   -18385.309    56.480591   -18328.828 
  866000    294.51348   -18377.625    54.781082   -18322.844 
  867000    298.55334   -18382.841    55.532517   -18327.309 
  868000    305.44953   -18381.555    56.815246    -18324.74 
  869000    294.08005   -18381.385    54.700463   -18326.685 
  870000    297.09836   -18384.724    55.261884   -18329.462 
  871000    306.77712   -18380.031    57.062186   -18322.968 
  872000    296.16208   -18380.722    55.087731   -18325.634 
  873000    295.17604   -18379.854    54.904322    -18324.95 
  874000    303.40553   -18381.397    56.435051   -18324.962 
  875000     297.3494   -18379.243    55.308579   -18323.934 
  876000    302.71458   -18381.016    56.306532   -18324.709 
  877000    297.55308   -18378.038    55.346464   -18322.692 
  878000    303.22612   -18386.601    56.401679   -18330.199 
  879000    293.81187   -18381.144     54.65058   -18326.494 
  880000    304.94738   -18384.937    56.721843   -18328.215 
  881000    302.27478   -18382.204    56.224726   -18325.979 
  882000    300.88475   -18382.247    55.966173   -18326.281 
  883000    292.30402   -18378.539    54.370111   -18324.169 
  884000    300.62911   -18389.466    55.918622   -18333.547 
  885000    299.69981   -18385.188    55.745768   -18329.442 
  886000    292.54933   -18374.935    54.415741   -18320.519 
  887000    294.39986   -18379.859    54.759948   -18325.099 
  888000    304.54787   -18387.958    56.647533    -18331.31 
  889000    300.62871   -18386.763    55.918548   -18330.844 
  890000    304.38331   -18383.199    56.616923   -18326.582 
  891000    299.83038    -18385.61    55.770054    -18329.84 
  892000    299.98635   -18382.099    55.799066     -18326.3 
  893000    296.87125    -18389.26     55.21964    -18334.04 
  894000    301.44276    -18385.59    56.069966    -18329.52 
  895000    301.97885   -18381.785    56.169681   -18325.615 
  896000    296.88665   -18384.168    55.222504   -18328.945 
  897000    297.02729   -18379.506    55.248665   -18324.257 
  898000    297.29522   -18379.835    55.298501   -18324.537 
  899000    304.53934   -18384.307    56.645946   -18327.661 
  900000    293.70802   -18381.207    54.631264   -18326.575 
  901000      302.809   -18385.836    56.324093   -18329.512 
  902000    298.81921    -18384.07    55.581971   -18328.488 
  903000    309.07281   -18386.001    57.489197   -18328.512 
  904000    299.33958   -18382.198    55.678764   -18326.519 
  905000    296.72178   -18380.908    55.191838   -18325.717 
  906000    313.96871   -18389.984    58.399859   -18331.584 
  907000    296.13522   -18379.344    55.082735   -18324.262 
  908000    301.10658   -18389.126    56.007434   -18333.118 
  909000    297.31783   -18385.743    55.302707    -18330.44 
  910000    297.66269    -18381.56    55.366852   -18326.193 
  911000    298.68877   -18382.688    55.557709    -18327.13 
  912000    308.20459   -18382.998    57.327703   -18325.671 
  913000    293.75707   -18381.061    54.640387    -18326.42 
  914000     303.7891   -18385.945    56.506397   -18329.438 
  915000     299.6714   -18379.911    55.740484   -18324.171 
  916000    300.32346   -18377.688     55.86177   -18321.826 
  917000    303.74767   -18379.416    56.498692   -18322.918 
  918000    293.72936   -18383.961    54.635232   -18329.325 
  919000     298.3018   -18388.585     55.48573   -18333.099 
  920000    301.56309   -18385.021    56.092348   -18328.928 
  921000    302.78402   -18384.682    56.319448   -18328.363 
  922000    301.18669   -18388.429    56.022336   -18332.406 
  923000    308.30416   -18383.172    57.346224   -18325.826 
  924000    302.14549   -18383.024    56.200677   -18326.823 
  925000    300.46053    -18380.47    55.887265   -18324.583 
  926000     301.1797   -18383.244    56.021035   -18327.223 
  927000    292.89781   -18377.174     54.48056   -18322.693 
  928000    300.64224   -18383.051    55.921065    -18327.13 
  929000    302.54048   -18384.787    56.274148   -18328.513 
  930000    299.14708    -18383.94    55.642957   -18328.297 
  931000     300.5747   -18380.491    55.908503   -18324.583 
  932000     305.6983   -18386.339    56.861518   -18329.478 
  933000    306.26654   -18385.601    56.967214   -18328.634 
  934000    295.02687   -18380.447    54.876576   -18325.571 
  935000      296.496   -18382.757    55.149841   -18327.607 
  936000    294.94336   -18386.227    54.861042   -18331.366 
  937000    299.74281   -18387.116    55.753766   -18331.362 
  938000    306.25175   -18382.675    56.964463   -18325.711 
  939000    305.48359   -18383.969    56.821581   -18327.148 
  940000    293.55151   -18380.265    54.602151   -18325.663 
  941000    303.11251   -18381.936    56.380548   -18325.556 
  942000    301.19179   -18382.099    56.023284   -18326.076 
  943000     296.7757   -18375.557    55.201868   -18320.355 
  944000    302.96562   -18384.746    56.353227   -18328.393 
  945000    300.83583   -18385.906    55.957073   -18329.948 
  946000    295.13398   -18382.553    54.896498   -18327.656 
  947000    297.34919   -18384.317     55.30854   -18329.009 
  948000    296.53928   -18386.815    55.157892   -18331.657 
  949000    299.94783   -18382.385    55.791901   -18326.593 
  950000    307.24889   -18389.296    57.149936   -18332.146 
  951000    294.50782   -18383.142    54.780029   -18328.362 
  952000    295.63176   -18376.372    54.989089   -18321.383 
  953000    302.87927   -18389.542    56.337165   -18333.204 
  954000    297.13702   -18380.928    55.269075   -18325.659 
  955000     308.7479   -18385.168    57.428761   -18327.739 
  956000    298.72978     -18379.5    55.565336   -18323.935 
  957000    300.22586   -18386.406    55.843616   -18330.562 
  958000    293.50974   -18375.912    54.594382   -18321.317 
  959000    301.30627   -18385.405    56.044577   -18329.361 
  960000    301.22577   -18383.148    56.029605   -18327.118 
  961000    296.94333   -18382.395    55.233048   -18327.162 
  962000    302.59269   -18385.566    56.283859   -18329.282 
  963000    291.67275   -18382.808    54.252692   -18328.555 
  964000    304.85372   -18391.919    56.704422   -18335.215 
  965000    299.56304   -18387.838    55.720328   -18332.118 
  966000    299.94818   -18379.648    55.791966   -18323.856 
  967000    303.73223   -18384.354     56.49582   -18327.858 
  968000     304.7101   -18378.541    56.677709   -18321.863 
  969000    295.11339   -18389.587    54.892669   -18334.694 
  970000    301.48464   -18381.722    56.077756   -18325.644 
  971000    297.74144   -18385.901    55.381501    -18330.52 
  972000    303.35978   -18378.739    56.426541   -18322.313 
  973000    297.78665     -18381.3    55.389909    -18325.91 
  974000    306.33928   -18386.268    56.980744   -18329.287 
  975000    289.48897   -18382.325    53.846496   -18328.479 
  976000    298.60033   -18381.757    55.541258   -18326.216 
  977000    304.49095   -18379.124    56.636946   -18322.487 
  978000    308.27975   -18383.824    57.341682   -18326.483 
  979000    294.78321   -18384.766    54.831254   -18329.935 
  980000    298.34342   -18381.873    55.493471   -18326.379 
  981000    310.22792   -18388.823    57.704053   -18331.119 
  982000    299.92138   -18382.812    55.786981   -18327.025 
  983000    299.47366   -18384.496    55.703703   -18328.792 
  984000    299.83804   -18384.447    55.771479   -18328.675 
  985000    294.65555   -18379.076    54.807509   -18324.269 
  986000    295.47547   -18381.637    54.960017   -18326.677 
  987000    299.99442   -18380.343    55.800566   -18324.542 
  988000    303.88668    -18388.71    56.524548   -18332.186 
  989000    293.27188   -18381.001    54.550138    -18326.45 
  990000    295.94257   -18381.693    55.046901   -18326.646 
  991000    295.65144   -18382.988    54.992749   -18327.995 
  992000    302.88985   -18383.432    56.339132   -18327.093 
  993000    297.00206   -18376.974    55.243972    -18321.73 
  994000    304.05857   -18386.866     56.55652    -18330.31 
  995000    305.38949   -18389.675    56.804078   -18332.871 
  996000     295.0425   -18379.514    54.879484   -18324.635 
  997000    296.06853   -18376.754     55.07033   -18321.684 
  998000    303.69958   -18382.724    56.489746   -18326.234 
  999000    299.40392   -18378.404    55.690731   -18322.713 
 1000000    293.53733   -18372.267    54.599514   -18317.668 
 1000005    289.65945   -18374.706    53.878206   -18320.827 
Loop time of 4549.78 on 16 procs for 1000000 steps with 1440 atoms

Performance: 18.990 ns/day, 1.264 hours/ns, 219.791 timesteps/s
70.8% CPU use with 16 MPI tasks x no OpenMP threads

MPI task timing breakdown:
Section |  min time  |  avg time  |  max time  |%varavg| %total
---------------------------------------------------------------
Pair    | 4.359      | 584.96     | 1445.1     |2425.1 | 12.86
Bond    | 0.10343    | 0.13691    | 0.18715    |   6.5 |  0.00
Kspace  | 2229.6     | 2484.8     | 3141.2     | 571.8 | 54.61
Neigh   | 0.023642   | 0.56828    | 1.4093     |  73.6 |  0.01
Comm    | 116.94     | 1253.1     | 2170.7     |2160.4 | 27.54
Output  | 0.67632    | 0.67808    | 0.69283    |   0.5 |  0.01
Modify  | 108.88     | 207.67     | 547.33     |1078.5 |  4.56
Other   |            | 17.84      |            |       |  0.39

Nlocal:    90 ave 193 max 0 min
Histogram: 8 0 0 0 0 0 0 0 2 6
Nghost:    725.688 ave 1024 max 440 min
Histogram: 8 0 0 0 0 0 0 0 0 8
Neighs:    7460.88 ave 17886 max 0 min
Histogram: 8 0 0 0 0 0 0 3 4 1

Total # of neighbors = 119374
Ave neighs/atom = 82.8986
Ave special neighs/atom = 0
Neighbor list builds = 1731
Dangerous builds = 0
######################################################
unfix           npt

fix		3 fl setforce 0 0 0
fix		4 fr setforce 0 0 0
velocity	fl set 0 0 0 units  box
velocity	fr set 0 0 0 units  box

fix	    5 hot  nvt temp 320 320 0.01
fix	    6 cold nvt temp 280 280 0.01
fix         7 middle nve
fix         8 fl nve
fix         9 fr nve

run             1000000
Ewald initialization ...
  using 12-bit tables for long-range coulomb (../kspace.cpp:319)
  G vector (1/distance) = 0.209789
  estimated absolute RMS force accuracy = 0.159237
  estimated relative force accuracy = 0.0110584
  KSpace vectors: actual max1d max3d = 722 7 1687
                  kxmax kymax kzmax  = 7 7 6
Per MPI rank memory allocation (min/avg/max) = 17.49 | 18.19 | 18.9 Mbytes
Step Temp PotEng KinEng TotEng 
 1000005    212.04132   -18373.411    39.440819    -18333.97 
 1001000     233.0915   -18375.827    43.356266   -18332.471 
 1002000    225.17242   -18374.456    41.883274   -18332.573 
 1003000    216.53531   -18372.254    40.276726   -18331.977 
 1004000    214.97758   -18374.617    39.986981    -18334.63 
 1005000    216.62672   -18381.765    40.293728   -18341.471 
 1006000     220.3331   -18378.982    40.983134   -18337.999 
 1007000    221.74245   -18377.028    41.245283   -18335.783 
 1008000    223.60367   -18379.546    41.591478   -18337.954 
 1009000    232.10432   -18376.371    43.172645   -18333.199 
 1010000    220.96938     -18380.2    41.101487   -18339.098 
 1011000    223.11273   -18380.249    41.500161   -18338.748 
 1012000    219.96671   -18377.209    40.914985   -18336.294 
 1013000    213.00679   -18376.083    39.620403   -18336.463 
 1014000    218.00324   -18377.037    40.549769   -18336.487 
 1015000    221.21058    -18380.43    41.146352   -18339.284 
 1016000    222.32787   -18382.273    41.354174   -18340.919 
 1017000     235.6922   -18379.121    43.840011    -18335.28 
 1018000    219.19715   -18377.937    40.771843   -18337.166 
 1019000     233.4839   -18378.236    43.429254   -18334.806 
 1020000    219.77289   -18379.625    40.878933   -18338.746 
 1021000    225.98112   -18381.432    42.033696   -18339.398 
 1022000    222.31525   -18377.913    41.351825   -18336.561 
 1023000    218.39702   -18382.985    40.623014   -18342.362 
 1024000    218.25339   -18379.314    40.596298   -18338.718 
 1025000    221.82872   -18378.644    41.261329   -18337.383 
 1026000    215.85772   -18377.614     40.15069   -18337.463 
 1027000    222.77659    -18374.89    41.437636   -18333.452 
 1028000    219.96957   -18378.612    40.915516   -18337.696 
 1029000    233.52684   -18373.053    43.437242   -18329.616 
 1030000    219.62236   -18382.105    40.850934   -18341.254 
 1031000    225.90693   -18382.141    42.019898   -18340.121 
 1032000    232.16744   -18376.655    43.184386    -18333.47 
 1033000    231.86861   -18378.279    43.128801    -18335.15 
 1034000    220.08617   -18371.072    40.937205   -18330.135 
 1035000    223.83939   -18376.573    41.635324   -18334.938 
 1036000    234.13487   -18376.946    43.550338   -18333.396 
 1037000    224.32096   -18375.637    41.724899   -18333.912 
 1038000    222.88131   -18372.272    41.457115   -18330.815 
 1039000     222.8973   -18379.127    41.460091   -18337.667 
 1040000    225.68555    -18380.05    41.978719   -18338.072 
 1041000     234.8043   -18378.215    43.674855    -18334.54 
 1042000    231.53952   -18375.963    43.067589   -18332.895 
 1043000    230.51203   -18378.734     42.87647   -18335.858 
 1044000    220.21467   -18380.216    40.961107   -18339.255 
 1045000    225.36322   -18378.263    41.918764   -18336.345 
 1046000    222.36443   -18379.601    41.360973    -18338.24 
 1047000    221.66454   -18377.458    41.230791   -18336.228 
 1048000    219.33692   -18382.403     40.79784   -18341.605 
 1049000    228.19851   -18381.289    42.446144   -18338.843 
 1050000    221.64421   -18380.667    41.227008    -18339.44 
 1051000    214.59964   -18379.725     39.91668   -18339.809 
 1052000    220.00033   -18377.522    40.921238   -18336.601 
 1053000     228.3951   -18378.949    42.482711   -18336.467 
 1054000    214.49112   -18377.267    39.896496   -18337.371 
 1055000    232.35785   -18380.096    43.219802   -18336.876 
 1056000    231.70656   -18374.349    43.098659    -18331.25 
 1057000    233.00724   -18378.277    43.340593   -18334.937 
 1058000    229.00791   -18376.393    42.596696   -18333.796 
 1059000    230.96068    -18375.82    42.959921    -18332.86 
 1060000    227.94687   -18373.952    42.399336   -18331.552 
 1061000    231.35957   -18379.676    43.034118   -18336.642 
 1062000    224.40877   -18380.654    41.741231   -18338.913 
 1063000     230.1824   -18379.396    42.815158   -18336.581 
 1064000    216.81362   -18374.005    40.328494   -18333.676 
 1065000    219.60468   -18377.869    40.847645   -18337.021 
 1066000    224.82566   -18377.785    41.818776   -18335.966 
 1067000    221.59023    -18381.85    41.216968   -18340.633 
 1068000    221.88947   -18383.175    41.272628   -18341.902 
 1069000    222.05062   -18381.273    41.302603   -18339.971 
 1070000    228.48373   -18379.699    42.499197     -18337.2 
 1071000    219.65066   -18376.308    40.856197   -18335.452 
 1072000    230.80219   -18375.002    42.930441   -18332.072 
 1073000    235.77285   -18376.484    43.855011   -18332.629 
 1074000    230.30578   -18380.277    42.838108   -18337.439 
 1075000    232.49371   -18375.286    43.245074   -18332.041 
 1076000    225.90035   -18377.381    42.018674   -18335.362 
 1077000    227.73554   -18374.588    42.360029   -18332.228 
 1078000    221.08759   -18376.378    41.123474   -18335.254 
 1079000    228.29945   -18379.525    42.464919    -18337.06 
 1080000    226.08389   -18374.006    42.052813   -18331.953 
 1081000     223.9905   -18380.455    41.663432   -18338.792 
 1082000    224.81759   -18379.388    41.817274   -18337.571 
 1083000    218.10452   -18377.703    40.568607   -18337.135 
 1084000    224.99039   -18379.757    41.849416   -18337.908 
 1085000    220.35805   -18376.809    40.987776   -18335.821 
 1086000    230.31315   -18379.623    42.839477   -18336.783 
 1087000    227.40419   -18377.525    42.298396   -18335.227 
 1088000    221.85646    -18376.46    41.266488   -18335.194 
 1089000    222.87398   -18381.422    41.455752   -18339.966 
 1090000    224.10042   -18385.509    41.683877   -18343.825 
 1091000    221.62354   -18375.909    41.223164   -18334.686 
 1092000    229.48962   -18385.317    42.686297    -18342.63 
 1093000    219.97752   -18381.332    40.916996   -18340.415 
 1094000    225.25094   -18378.464     41.89788   -18336.566 
 1095000    217.89426   -18373.596    40.529497   -18333.066 
 1096000    227.97774    -18383.99    42.405079   -18341.585 
 1097000    223.86632   -18379.947    41.640333   -18338.307 
 1098000    230.89031   -18377.523    42.946833   -18334.576 
 1099000    215.79572   -18374.101    40.139158   -18333.962 
 1100000    222.39638   -18383.249    41.366916   -18341.882 
 1101000    215.29485   -18377.589    40.045993   -18337.543 
 1102000    216.50006   -18378.365    40.270168   -18338.095 
 1103000    223.31617   -18374.519    41.538003   -18332.981 
 1104000    216.97786   -18375.491    40.359042   -18335.132 
 1105000    221.88832    -18376.52    41.272414   -18335.248 
 1106000    217.29662   -18374.736    40.418333   -18334.318 
 1107000    217.62433   -18375.014    40.479289   -18334.535 
 1108000    222.94807   -18375.412    41.469533   -18333.942 
 1109000    223.83046   -18376.923    41.633662   -18335.289 
 1110000    211.46827   -18379.897    39.334228   -18340.563 
 1111000    227.30673    -18372.31    42.280268    -18330.03 
 1112000    221.00182   -18373.124    41.107521   -18332.016 
 1113000    225.62256   -18373.256    41.967002   -18331.289 
 1114000    234.13637   -18379.933    43.550618   -18336.382 
 1115000    218.01904   -18379.405    40.552708   -18338.852 
 1116000    231.86884   -18381.493    43.128845   -18338.364 
 1117000    225.91817   -18377.609    42.021988   -18335.587 
 1118000    212.12823   -18379.344    39.456986   -18339.887 
 1119000    215.53234   -18381.378    40.090169   -18341.288 
 1120000    217.12469   -18375.281    40.386353   -18334.894 
 1121000    219.46159   -18381.251    40.821029    -18340.43 
 1122000    213.66023    -18377.98    39.741945   -18338.238 
 1123000    232.38995   -18381.563    43.225774   -18338.338 
 1124000    218.71119   -18382.761    40.681452    -18342.08 
 1125000    223.92339   -18376.947    41.650949   -18335.296 
 1126000    223.76799    -18372.64    41.622044   -18331.018 
 1127000    212.85291   -18380.624     39.59178   -18341.032 
 1128000    221.58315   -18376.962    41.215651   -18335.747 
 1129000     218.9523   -18377.214      40.7263   -18336.488 
 1130000    227.88716   -18381.922    42.388231   -18339.534 
 1131000    222.62857     -18376.6    41.410104    -18335.19 
 1132000    218.70145    -18375.65     40.67964    -18334.97 
 1133000    223.89597   -18375.995    41.645848   -18334.349 
 1134000    212.36763   -18376.724    39.501515   -18337.223 
 1135000    217.44256   -18381.112    40.445479   -18340.667 
 1136000    219.00846   -18377.045    40.736745   -18336.308 
 1137000    224.84972   -18374.028     41.82325   -18332.205 
 1138000    218.72533    -18373.46     40.68408   -18332.776 
 1139000    221.37954   -18376.572    41.177779   -18335.395 
 1140000    222.76822   -18377.338    41.436081   -18335.902 
 1141000    214.72513    -18377.86    39.940022    -18337.92 
 1142000    228.74762   -18373.323    42.548281   -18330.775 
 1143000    226.37793    -18379.87    42.107506   -18337.762 
 1144000    219.46012   -18379.375    40.820756   -18338.554 
 1145000    224.84985   -18376.556    41.823275   -18334.733 
 1146000    220.68888   -18376.039    41.049311    -18334.99 
 1147000    225.12025   -18376.569     41.87357   -18334.696 
 1148000    229.15772   -18376.497    42.624562   -18333.873 
 1149000    228.45968   -18382.081    42.494722   -18339.586 
 1150000    230.18166     -18378.7     42.81502   -18335.885 
 1151000    231.51398   -18377.816    43.062839   -18334.753 
 1152000     223.8589   -18379.923    41.638952   -18338.284 
 1153000    223.64847   -18375.878    41.599811   -18334.279 
 1154000    224.68736   -18376.636    41.793051   -18334.843 
 1155000    230.70091   -18378.691    42.911603   -18335.779 
 1156000    219.32619   -18377.667    40.795844   -18336.871 
 1157000    223.40977   -18374.147    41.555413   -18332.592 
 1158000    214.67664   -18375.767    39.931004   -18335.836 
 1159000    214.49447    -18380.94    39.897119   -18341.043 
 1160000    220.69436   -18377.345    41.050331   -18336.295 
 1161000    220.21938   -18374.956    40.961982   -18333.994 
 1162000    228.24448   -18376.757    42.454694   -18334.302 
 1163000    224.54242     -18383.7    41.766091   -18341.934 
 1164000    223.43319   -18380.928    41.559769   -18339.368 
 1165000    219.11517   -18375.431    40.756594   -18334.675 
 1166000    223.87889   -18381.687    41.642671   -18340.044 
 1167000    219.68297   -18377.476    40.862207   -18336.613 
 1168000    220.57707   -18379.694    41.028514   -18338.665 
 1169000    219.65759   -18380.295    40.857487   -18339.437 
 1170000    221.30617   -18380.836    41.164132   -18339.672 
 1171000    223.66509   -18376.719    41.602902   -18335.116 
 1172000    243.19245   -18378.932    45.235097   -18333.697 
 1173000    224.96715   -18379.791    41.845092   -18337.946 
 1174000    218.97649   -18373.443    40.730798   -18332.712 
 1175000    222.65337   -18375.899    41.414718   -18334.485 
 1176000    227.10003   -18377.676    42.241821   -18335.434 
 1177000    222.43139   -18380.952    41.373428   -18339.578 
 1178000    222.72944   -18378.419    41.428868    -18336.99 
 1179000    232.71176    -18379.04    43.285633   -18335.755 
 1180000    219.55994   -18375.067    40.839323   -18334.228 
 1181000    222.16611   -18378.178    41.324085   -18336.854 
 1182000    222.58844   -18375.701    41.402641   -18334.298 
 1183000    233.20859   -18378.481    43.378044   -18335.103 
 1184000    225.49682    -18379.86    41.943615   -18337.917 
 1185000    220.50144   -18375.944    41.014448    -18334.93 
 1186000    220.19676   -18382.075    40.957775   -18341.117 
 1187000    222.45188   -18381.045    41.377239   -18339.667 
 1188000    214.15862   -18381.083    39.834649   -18341.248 
 1189000    224.99143   -18372.982    41.849609   -18331.132 
 1190000    223.36369    -18379.55     41.54684   -18338.004 
 1191000    219.98942   -18376.287    40.919208   -18335.367 
 1192000    215.71801   -18374.591    40.124705   -18334.466 
 1193000    227.52496   -18378.703     42.32086   -18336.382 
 1194000    220.27149   -18379.024    40.971676   -18338.053 
 1195000    224.88655   -18375.065    41.830101   -18333.235 
 1196000    229.39283   -18382.811    42.668293   -18340.142 
 1197000    227.76736   -18377.573    42.365947   -18335.207 
 1198000    223.07179   -18376.946    41.492546   -18335.453 
 1199000    229.71498   -18375.537    42.728215   -18332.809 
 1200000    224.64052    -18374.18    41.784337   -18332.396 
 1201000    224.04944   -18378.022    41.674395   -18336.348 
 1202000    234.06255   -18377.962    43.536886   -18334.425 
 1203000    224.17901   -18377.993    41.698494   -18336.295 
 1204000    222.27662   -18379.816    41.344639   -18338.471 
 1205000    221.58929   -18379.428    41.216793   -18338.211 
 1206000    220.34167   -18377.436    40.984729   -18336.451 
 1207000    225.35728   -18381.516     41.91766   -18339.598 
 1208000    221.89652   -18380.815    41.273939   -18339.541 
 1209000    226.10896   -18378.781    42.057476   -18336.723 
 1210000    215.28004   -18376.169     40.04324   -18336.126 
 1211000    222.82597   -18377.709    41.446822   -18336.262 
 1212000    211.76571   -18379.501    39.389555   -18340.112 
 1213000    220.71639   -18378.337    41.054429   -18337.283 
 1214000    207.14883   -18374.705     38.53079   -18336.174 
 1215000    217.02652   -18378.306    40.368093   -18337.937 
 1216000     213.0986   -18380.994    39.637479   -18341.356 
 1217000    217.80129   -18376.705    40.512205   -18336.193 
 1218000    215.52064    -18377.82    40.087991   -18337.732 
 1219000    216.66113   -18378.892    40.300129   -18338.591 
 1220000    228.59337   -18381.784     42.51959   -18339.265 
 1221000    234.65571   -18381.875    43.647218   -18338.228 
 1222000    217.95712   -18378.142    40.541189   -18337.601 
 1223000    228.25415   -18378.183    42.456493   -18335.726 
 1224000    223.96575   -18377.227    41.658827   -18335.568 
 1225000    222.12507   -18373.846     41.31645   -18332.529 
 1226000     216.8216   -18381.363    40.329976   -18341.033 
 1227000    214.68258   -18376.601    39.932107   -18336.669 
 1228000    221.82881   -18380.404    41.261345   -18339.143 
 1229000    225.60269   -18380.899    41.963307   -18338.936 
 1230000    230.03632   -18380.439    42.787986   -18337.651 
 1231000    223.26669   -18377.993    41.528798   -18336.464 
 1232000    221.04643   -18376.311    41.115817   -18335.196 
 1233000    229.15252   -18379.759    42.623594   -18337.135 
 1234000    231.72852    -18381.56    43.102743   -18338.457 
 1235000    226.76105   -18376.264    42.178769   -18334.085 
 1236000    231.06087   -18380.113    42.978557   -18337.134 
 1237000    230.30117   -18375.856    42.837249   -18333.019 
 1238000     224.5574   -18377.953    41.768878   -18336.184 
 1239000    222.26998   -18379.659    41.343406   -18338.316 
 1240000    226.99344   -18374.018    42.221993   -18331.796 
 1241000    219.04146   -18381.831    40.742883   -18341.088 
 1242000    224.15408   -18386.888    41.693857   -18345.194 
 1243000    229.61976   -18381.261    42.710504   -18338.551 
 1244000    222.41804   -18381.151    41.370944    -18339.78 
 1245000    226.45019   -18381.188    42.120946   -18339.067 
 1246000    233.38615   -18376.993    43.411072   -18333.581 
 1247000    225.08831   -18375.712    41.867629   -18333.844 
 1248000    231.97061   -18376.807    43.147773   -18333.659 
 1249000    216.15449   -18379.402    40.205892   -18339.196 
 1250000     233.4852   -18381.106    43.429496   -18337.676 
 1251000    224.25495   -18378.578     41.71262   -18336.866 
 1252000     220.8149    -18375.42    41.072753   -18334.347 
 1253000    214.20412   -18375.065    39.843112   -18335.222 
 1254000    225.65953   -18379.288    41.973879   -18337.314 
 1255000    213.41784   -18378.228    39.696859   -18338.531 
 1256000    219.10048   -18380.124    40.753861   -18339.371 
 1257000    213.41336    -18379.68    39.696026   -18339.984 
 1258000    219.97749   -18377.535     40.91699   -18336.618 
 1259000    220.64587   -18378.985    41.041311   -18337.943 
 1260000    227.79616   -18380.362    42.371304    -18337.99 
 1261000     221.6093   -18380.767    41.220515   -18339.547 
 1262000    221.21343   -18378.402    41.146881   -18337.255 
 1263000    226.93043   -18375.779    42.210274   -18333.568 
 1264000    219.50246   -18376.853    40.828631   -18336.025 
 1265000    216.83262   -18382.591    40.332027   -18342.259 
 1266000    215.66654   -18378.133    40.115129   -18338.018 
 1267000    222.30219   -18380.939    41.349397    -18339.59 
 1268000    223.34518   -18380.839    41.543398   -18339.295 
 1269000    225.80931   -18380.965     42.00174   -18338.964 
 1270000    215.90035   -18375.845     40.15862   -18335.687 
 1271000    217.50248   -18381.186    40.456624   -18340.729 
 1272000     223.6104   -18379.047    41.592731   -18337.455 
 1273000    214.69154   -18379.203    39.933775    -18339.27 
 1274000    221.41716    -18383.12    41.184777   -18341.935 
 1275000     228.2436    -18377.64     42.45453   -18335.185 
 1276000    226.64921   -18372.777    42.157965   -18330.619 
 1277000    238.04836   -18381.547    44.278269   -18337.269 
 1278000    222.99359   -18376.676    41.478001   -18335.198 
 1279000    230.95157    -18380.92    42.958227   -18337.962 
 1280000    230.10687   -18372.027    42.801109   -18329.226 
 1281000    228.20701   -18374.067    42.447724   -18331.619 
 1282000    219.20334   -18377.562    40.772994   -18336.789 
 1283000    219.54805   -18378.416    40.837112   -18337.579 
 1284000     217.0518   -18378.428    40.372796   -18338.055 
 1285000    223.60173   -18375.016    41.591118   -18333.425 
 1286000    223.94777   -18380.958    41.655483   -18339.302 
 1287000    219.16446   -18380.224    40.765762   -18339.458 
 1288000    227.46302   -18380.423    42.309339   -18338.113 
 1289000    221.33855   -18381.893    41.170155   -18340.723 
 1290000    220.90217   -18377.317    41.088984   -18336.228 
 1291000    223.26878   -18375.728    41.529186   -18334.199 
 1292000     226.9749   -18373.403    42.218546   -18331.185 
 1293000     212.6292   -18373.827    39.550168   -18334.277 
 1294000     214.6872   -18384.523    39.932968    -18344.59 
 1295000     223.2507   -18375.676    41.525825   -18334.151 
 1296000    218.66834   -18377.347     40.67348   -18336.674 
 1297000    220.88143   -18378.309    41.085128   -18337.224 
 1298000    215.53271   -18376.557    40.090237   -18336.466 
 1299000     221.6798   -18379.327    41.233628   -18338.093 
 1300000    228.17179   -18377.118    42.441173   -18334.677 
 1301000    226.46322   -18383.118     42.12337   -18340.995 
 1302000    222.28565   -18374.937    41.346319   -18333.591 
 1303000    224.97222   -18376.641    41.846037   -18334.795 
 1304000      222.815   -18377.986    41.444781   -18336.542 
 1305000    226.74563   -18376.939      42.1759   -18334.763 
 1306000    222.59299   -18376.858    41.403488   -18335.454 
 1307000    232.48745   -18374.943    43.243908   -18331.699 
 1308000    231.90059    -18379.19     43.13475   -18336.056 
 1309000    220.94915   -18376.112    41.097724   -18335.014 
 1310000    221.97987   -18380.198    41.289443   -18338.908 
 1311000    225.68791    -18379.86    41.979159   -18337.881 
 1312000    226.88532   -18381.146    42.201882   -18338.944 
 1313000    226.19576   -18378.255     42.07362   -18336.181 
 1314000    224.20589   -18383.189    41.703495   -18341.486 
 1315000    217.20208   -18377.038    40.400749   -18336.637 
 1316000    216.59142   -18375.916    40.287163   -18335.629 
 1317000    218.09341   -18376.694     40.56654   -18336.127 
 1318000     216.1987   -18375.769    40.214114   -18335.555 
 1319000    213.49524   -18379.347    39.711257   -18339.635 
 1320000    223.77971   -18379.507    41.624224   -18337.883 
 1321000    212.90336   -18376.761    39.601163   -18337.159 
 1322000    220.10966   -18374.876    40.941574   -18333.934 
 1323000    220.44181   -18379.254    41.003356   -18338.251 
 1324000    225.60699   -18379.575    41.964107   -18337.611 
 1325000    209.80921   -18375.101    39.025635   -18336.076 
 1326000    216.84038    -18381.17    40.333471   -18340.837 
 1327000    222.19919   -18381.308    41.330238   -18339.978 
 1328000    224.52419   -18378.244    41.762701   -18336.481 
 1329000    223.75236    -18382.06    41.619135   -18340.441 
 1330000    216.83407   -18379.038    40.332298   -18338.706 
 1331000    217.07014   -18380.165    40.376207   -18339.789 
 1332000    236.82374   -18377.454    44.050482   -18333.404 
 1333000    227.15534   -18381.257    42.252109   -18339.005 
 1334000    220.39256   -18379.441    40.994194   -18338.447 
 1335000    224.85307   -18380.352    41.823873   -18338.528 
 1336000     214.9191   -18381.032    39.976103   -18341.056 
 1337000    221.98368    -18378.34    41.290151    -18337.05 
 1338000    220.47805   -18376.366    41.010097   -18335.356 
 1339000    227.81528   -18384.231     42.37486   -18341.856 
 1340000    226.06353   -18374.575    42.049025   -18332.525 
 1341000    219.62304   -18375.977    40.851061   -18335.126 
 1342000    234.69231   -18378.902    43.654025   -18335.248 
 1343000    225.06504   -18376.944    41.863301   -18335.081 
 1344000    234.33836   -18372.843    43.588189   -18329.255 
 1345000    223.50364   -18374.205    41.572873   -18332.632 
 1346000    216.43384   -18382.105    40.257852   -18341.848 
 1347000    218.03585   -18380.998    40.555835   -18340.442 
 1348000     224.3328   -18375.488      41.7271   -18333.761 
 1349000    226.94029   -18375.219    42.212107   -18333.007 
 1350000    212.64454   -18376.513    39.553023    -18336.96 
 1351000    211.44135   -18382.189    39.329222    -18342.86 
 1352000    231.71201   -18381.785    43.099672   -18338.686 
 1353000    226.41354   -18371.661    42.114129   -18329.546 
 1354000    220.35868   -18374.822    40.987894   -18333.835 
 1355000    220.68057    -18378.54    41.047766   -18337.492 
 1356000    236.73965   -18375.171    44.034841   -18331.137 
 1357000    219.57896   -18381.322    40.842861   -18340.479 
 1358000    228.44177   -18380.838     42.49139   -18338.346 
 1359000    217.73052   -18376.536    40.499041   -18336.037 
 1360000    215.05037   -18383.156    40.000519   -18343.155 
 1361000    224.19513    -18379.78    41.701493   -18338.078 
 1362000    219.30331   -18380.506    40.791588   -18339.715 
 1363000    227.62305   -18374.411    42.339105   -18332.072 
 1364000    227.52005   -18379.471    42.319946   -18337.151 
 1365000    223.68715   -18378.217    41.607006    -18336.61 
 1366000    232.66351   -18381.075    43.276657   -18337.799 
 1367000     227.6873   -18378.932    42.351055   -18336.581 
 1368000    229.59733   -18374.363    42.706332   -18331.657 
 1369000    220.54303   -18373.287    41.022184   -18332.265 
 1370000    222.82938   -18380.495    41.447457   -18339.047 
 1371000    230.29273    -18376.13     42.83568   -18333.295 
 1372000    223.38899   -18380.475    41.551547   -18338.924 
 1373000    224.05144   -18381.131    41.674767   -18339.456 
 1374000    224.53042   -18379.385    41.763859   -18337.621 
 1375000    220.44214   -18376.422    41.003418   -18335.419 
 1376000      215.174   -18379.527    40.023515   -18339.504 
 1377000    229.11032   -18377.211    42.615746   -18334.595 
 1378000    227.89553   -18384.627    42.389788   -18342.237 
 1379000    231.29189   -18383.551     43.02153   -18340.529 
 1380000    233.04468   -18381.502    43.347558   -18338.154 
 1381000    228.76073   -18378.549    42.550719   -18335.998 
 1382000    230.24357   -18373.331    42.826535   -18330.504 
 1383000    226.16049   -18382.241    42.067062   -18340.174 
 1384000    217.60698   -18373.481    40.476063   -18333.005 
 1385000     232.0606    -18379.39    43.164513   -18336.226 
 1386000    224.70867   -18382.074    41.797014   -18340.277 
 1387000    222.26651   -18375.861    41.342759   -18334.519 
 1388000     234.9903   -18380.203    43.709453   -18336.493 
 1389000     227.1862    -18379.67    42.257848   -18337.412 
 1390000    226.05868   -18380.444    42.048123   -18338.396 
 1391000    222.54953    -18379.33    41.395403   -18337.934 
 1392000    228.88689   -18372.822    42.574185   -18330.248 
 1393000    217.39836   -18376.318    40.437258   -18335.881 
 1394000    227.73667   -18375.767    42.360238   -18333.406 
 1395000    218.10689   -18383.141    40.569048   -18342.572 
 1396000    217.80446   -18375.268    40.512795   -18334.755 
 1397000    218.78911   -18375.183    40.695945   -18334.487 
 1398000    224.02484   -18382.934    41.669819   -18341.264 
 1399000    227.92807   -18373.802     42.39584   -18331.406 
 1400000    222.89943   -18377.371    41.460487    -18335.91 
 1401000    227.56624   -18382.345    42.328538   -18340.016 
 1402000    228.02692   -18377.244    42.414227   -18334.829 
 1403000    232.64715   -18381.077    43.273614   -18337.804 
 1404000    222.94162   -18376.801    41.468334   -18335.333 
 1405000    217.08071    -18382.53    40.378173   -18342.152 
 1406000    227.44293   -18377.876    42.305601    -18335.57 
 1407000    227.07816   -18380.249    42.237753   -18338.011 
 1408000    222.67519   -18378.881    41.418776   -18337.462 
 1409000    230.14847   -18378.437    42.808847   -18335.628 
 1410000    226.91429   -18379.987    42.207272   -18337.779 
 1411000    225.88584   -18378.759    42.015974   -18336.743 
 1412000    210.81409   -18377.103    39.212549    -18337.89 
 1413000    218.45831   -18379.751    40.634413   -18339.117 
 1414000      226.821   -18375.463    42.189919   -18333.273 
 1415000    223.28538    -18380.33    41.532275   -18338.798 
 1416000    229.13831   -18377.594    42.620951   -18334.973 
 1417000    224.29764   -18376.264    41.720561   -18334.544 
 1418000    220.21764   -18376.855    40.961659   -18335.893 
 1419000     213.7676   -18375.381    39.761918   -18335.619 
 1420000    225.09838   -18382.062    41.869503   -18340.192 
 1421000    225.50322   -18378.215    41.944805    -18336.27 
 1422000    216.62083   -18379.701    40.292633   -18339.409 
 1423000    208.04267   -18372.971     38.69705   -18334.274 
 1424000    223.82547   -18383.921    41.632735   -18342.288 
 1425000    225.49706   -18376.789     41.94366   -18334.845 
 1426000    229.22425   -18377.465    42.636936   -18334.828 
 1427000    227.31372   -18380.995    42.281568   -18338.714 
 1428000    224.07126   -18379.397    41.678454   -18337.718 
 1429000    225.72706   -18374.502    41.986441   -18332.516 
 1430000    230.36263   -18378.112    42.848681   -18335.263 
 1431000    225.77909   -18380.868    41.996119   -18338.872 
 1432000    225.13832   -18374.937    41.876931   -18333.061 
 1433000    221.42212   -18376.568    41.185699   -18335.383 
 1434000    215.23869   -18379.764    40.035548   -18339.728 
 1435000    228.39007   -18378.395    42.481774   -18335.914 
 1436000    223.40557   -18378.676    41.554631   -18337.122 
 1437000    220.70314   -18375.811    41.051964   -18334.759 
 1438000    231.24672   -18378.507    43.013127   -18335.494 
 1439000    226.66971   -18372.814    42.161779   -18330.652 
 1440000    223.48201   -18381.037     41.56885   -18339.468 
 1441000    228.09151   -18377.818     42.42624   -18335.392 
 1442000    220.84659   -18381.149    41.078646    -18340.07 
 1443000     211.3943    -18374.78     39.32047   -18335.459 
 1444000    219.76897    -18378.61    40.878204   -18337.732 
 1445000    228.08385   -18378.892    42.424815   -18336.467 
 1446000    224.27035   -18380.121    41.715484   -18338.406 
 1447000    222.67606   -18374.039    41.418938   -18332.621 
 1448000    228.15572   -18377.737    42.438184   -18335.299 
 1449000    216.42491   -18379.479     40.25619   -18339.223 
 1450000    220.95693   -18379.701    41.099171   -18338.602 
 1451000    219.79104   -18374.086     40.88231   -18333.204 
 1452000    217.47479   -18380.306    40.451474   -18339.854 
 1453000    221.03957   -18378.707    41.114542   -18337.593 
 1454000     223.2922   -18377.072    41.533543   -18335.538 
 1455000    225.66033   -18372.792    41.974028   -18330.818 
 1456000    230.36073   -18375.742    42.848328   -18332.894 
 1457000    242.19008   -18376.827    45.048651   -18331.778 
 1458000     219.7613   -18374.917    40.876778    -18334.04 
 1459000     225.9892   -18376.193    42.035201   -18334.158 
 1460000    226.70702   -18376.495    42.168719   -18334.326 
 1461000    224.85515   -18380.655     41.82426   -18338.831 
 1462000    221.84194   -18376.512    41.263788   -18335.249 
 1463000    221.18579   -18377.185     41.14174   -18336.043 
 1464000    224.14458   -18382.176    41.692092   -18340.483 
 1465000    220.55994   -18377.823    41.025329   -18336.798 
 1466000    218.64232   -18374.069    40.668642     -18333.4 
 1467000    231.34725   -18380.752    43.031826    -18337.72 
 1468000    224.46515   -18381.318    41.751718   -18339.566 
 1469000    226.08888   -18376.961    42.053741   -18334.908 
 1470000    227.88617   -18376.638    42.388046   -18334.249 
 1471000    214.82696   -18381.901    39.958963   -18341.942 
 1472000    223.72742   -18379.272    41.614497   -18337.658 
 1473000     224.3785    -18378.53    41.735602   -18336.795 
 1474000    229.54377   -18381.092    42.696369   -18338.395 
 1475000    216.79748   -18380.503    40.325491   -18340.177 
 1476000    221.35554   -18377.742    41.173314   -18336.569 
 1477000    231.31057   -18378.756    43.025003   -18335.731 
 1478000    217.40939   -18377.748     40.43931   -18337.308 
 1479000    226.50678   -18382.957    42.131472   -18340.825 
 1480000    227.28778   -18375.784    42.276743   -18333.507 
 1481000    225.54699   -18379.188    41.952946   -18337.236 
 1482000    218.25896   -18376.617    40.597334    -18336.02 
 1483000    229.88116   -18381.045    42.759125   -18338.286 
 1484000    226.80047    -18378.79      42.1861   -18336.604 
 1485000    228.32079   -18377.422    42.468888   -18334.953 
 1486000    221.96914   -18377.319    41.287447   -18336.032 
 1487000    219.76162   -18377.602    40.876838   -18336.725 
 1488000    224.31571   -18378.728    41.723922   -18337.004 
 1489000    221.39289   -18381.754    41.180262   -18340.573 
 1490000    215.60155   -18380.028    40.103042   -18339.925 
 1491000    221.68829   -18382.785    41.235207    -18341.55 
 1492000    229.95866   -18374.373    42.773542   -18331.599 
 1493000     228.5079   -18378.964    42.503692    -18336.46 
 1494000    228.48618   -18376.443    42.499652   -18333.943 
 1495000    223.96665   -18373.821    41.658995   -18332.162 
 1496000    220.67501   -18374.443    41.046733   -18333.396 
 1497000     222.1696   -18378.165    41.324735   -18336.841 
 1498000    224.28458   -18376.603    41.718132   -18334.884 
 1499000    234.05757   -18378.013     43.53596   -18334.477 
 1500000    230.50811   -18378.586    42.875742   -18335.711 
 1501000    224.06213   -18375.045    41.676755   -18333.368 
 1502000    228.50621   -18377.387    42.503378   -18334.884 
 1503000    227.06999   -18376.826    42.236233    -18334.59 
 1504000    217.51941   -18381.028    40.459773   -18340.569 
 1505000    221.23595   -18378.063    41.151069   -18336.912 
 1506000    223.66006   -18376.209    41.601967   -18334.607 
 1507000    230.75219   -18375.908    42.921142   -18332.987 
 1508000    225.69777   -18382.184    41.980992   -18340.203 
 1509000      228.602   -18377.895    42.521194   -18335.374 
 1510000    226.69662   -18376.886    42.166783   -18334.719 
 1511000    230.49914   -18380.006    42.874074   -18337.132 
 1512000    227.32886   -18379.035    42.284385   -18336.751 
 1513000    216.17304    -18376.04    40.209342    -18335.83 
 1514000    227.52765   -18379.174     42.32136   -18336.853 
 1515000    221.33387   -18377.189    41.169284   -18336.019 
 1516000    218.37121   -18380.855    40.618212   -18340.237 
 1517000    227.96855   -18378.706     42.40337   -18336.303 
 1518000    219.62144   -18380.195    40.850762   -18339.344 
 1519000    228.57297   -18378.272    42.515795   -18335.756 
 1520000    223.23033   -18376.512    41.522035    -18334.99 
 1521000    221.26644   -18381.641    41.156741   -18340.485 
 1522000    225.38039   -18381.773    41.921959   -18339.851 
 1523000    217.52772   -18374.575     40.46132   -18334.114 
 1524000    221.10421   -18379.544    41.126566   -18338.417 
 1525000     222.1944    -18380.35    41.329346   -18339.021 
 1526000    226.41557   -18377.615    42.114507     -18335.5 
 1527000    217.67307   -18382.723    40.488355   -18342.234 
 1528000    217.29397   -18376.794    40.417841   -18336.376 
 1529000    228.22524   -18379.616    42.451116   -18337.165 
 1530000    232.13439   -18373.697    43.178238   -18330.519 
 1531000    225.32971   -18383.484    41.912532   -18341.571 
 1532000    223.39162       -18380    41.552037   -18338.448 
 1533000    223.96697   -18378.946    41.659054   -18337.287 
 1534000    227.26965   -18378.232    42.273371   -18335.959 
 1535000    231.67336     -18378.4    43.092484   -18335.308 
 1536000    230.26367    -18377.96    42.830274   -18335.129 
 1537000    220.58809   -18377.235    41.030564   -18336.204 
 1538000    224.08313    -18379.13     41.68066   -18337.449 
 1539000    225.78674   -18378.711    41.997541   -18336.713 
 1540000    223.81804   -18375.579    41.631352   -18333.948 
 1541000    222.70835   -18380.193    41.424944   -18338.768 
 1542000    222.80062   -18381.676    41.442106   -18340.234 
 1543000    228.27234    -18375.27    42.459877   -18332.811 
 1544000    227.14793   -18377.685    42.250731   -18335.434 
 1545000    224.90103   -18378.221    41.832794   -18336.388 
 1546000    218.50476   -18372.412    40.643054   -18331.768 
 1547000    235.23472   -18382.249    43.754917   -18338.494 
 1548000     226.4664   -18377.783    42.123962   -18335.659 
 1549000    222.24046   -18378.286    41.337913   -18336.948 
 1550000    218.13364   -18376.095    40.574024   -18335.521 
 1551000    218.21037   -18370.531    40.588296   -18329.942 
 1552000        219.4   -18377.736    40.809573   -18336.927 
 1553000    216.76019   -18376.222    40.318554   -18335.903 
 1554000    219.19631   -18375.195    40.771687   -18334.423 
 1555000    226.93371   -18381.312    42.210885   -18339.101 
 1556000    221.70873   -18374.172    41.239009   -18332.933 
 1557000    223.84715   -18376.157    41.636768    -18334.52 
 1558000    227.50979   -18375.754    42.318038   -18333.436 
 1559000    221.93666   -18381.146    41.281406   -18339.865 
 1560000     222.3137   -18378.707    41.351537   -18337.356 
 1561000    231.24412   -18379.439    43.012643   -18336.426 
 1562000    227.26146   -18378.426    42.271848   -18336.154 
 1563000     226.1856   -18372.942    42.071732    -18330.87 
 1564000    218.75661   -18378.726      40.6899   -18338.036 
 1565000    220.52963    -18377.12    41.019691   -18336.101 
 1566000    225.87116   -18379.892    42.013243   -18337.879 
 1567000    232.89181    -18374.78    43.319122   -18331.461 
 1568000    230.77191   -18374.761     42.92481   -18331.836 
 1569000    229.47688   -18379.693    42.683928   -18337.009 
 1570000    224.16595   -18379.212    41.696066   -18337.516 
 1571000    210.65328   -18374.664    39.182637   -18335.481 
 1572000    213.59269   -18377.905    39.729384   -18338.175 
 1573000    220.04106   -18382.426    40.928813   -18341.497 
 1574000    220.30715   -18374.406    40.978308   -18333.428 
 1575000    218.71783    -18376.93    40.682687   -18336.248 
 1576000    224.11276   -18382.793    41.686173   -18341.107 
 1577000    228.99376   -18379.842    42.594064   -18337.248 
 1578000    220.26512   -18374.164     40.97049   -18333.193 
 1579000    228.33934   -18378.459    42.472339   -18335.987 
 1580000    220.89556   -18376.447    41.087755   -18335.359 
 1581000    216.51365   -18374.983    40.272697   -18334.711 
 1582000    222.35249   -18378.562    41.358753   -18337.204 
 1583000    219.26486   -18380.743    40.784438   -18339.958 
 1584000    216.69914   -18381.158      40.3072   -18340.851 
 1585000    211.09594   -18370.581    39.264974   -18331.316 
 1586000    217.59372   -18382.096    40.473595   -18341.622 
 1587000    231.45212   -18377.566    43.051332   -18334.515 
 1588000    223.12635   -18375.906    41.502694   -18334.403 
 1589000    223.18991   -18380.446    41.514516   -18338.932 
 1590000    213.21869   -18375.051    39.659818   -18335.392 
 1591000     214.7667   -18381.178    39.947756    -18341.23 
 1592000    217.56161   -18376.355    40.467623   -18335.887 
 1593000    220.02477   -18378.777    40.925784   -18337.851 
 1594000    221.47286   -18375.038    41.195137   -18333.843 
 1595000    216.08273   -18376.578    40.192543   -18336.385 
 1596000      219.663   -18380.847    40.858494   -18339.988 
 1597000     210.1808   -18378.582    39.094753   -18339.487 
 1598000    221.64732   -18376.288    41.227587   -18335.061 
 1599000    223.18567   -18379.384    41.513729    -18337.87 
 1600000    223.46846   -18378.705    41.566329   -18337.139 
 1601000    224.99381   -18381.084    41.850052   -18339.234 
 1602000    211.82921    -18382.06    39.401365   -18342.659 
 1603000    221.42299    -18381.09    41.185861   -18339.905 
 1604000     219.5688   -18376.356    40.840971   -18335.515 
 1605000    221.92799   -18380.348    41.279793   -18339.068 
 1606000    214.89642   -18378.073    39.971884   -18338.101 
 1607000    227.59719   -18378.637    42.334294   -18336.303 
 1608000    225.62456   -18375.651    41.967376   -18333.684 
 1609000    216.94399    -18376.88    40.352743   -18336.527 
 1610000    226.00336   -18378.929    42.037833   -18336.891 
 1611000    237.00654   -18377.746    44.084484   -18333.662 
 1612000    232.50785   -18379.049    43.247703   -18335.801 
 1613000    229.47874   -18381.602    42.684273   -18338.918 
 1614000    224.55229   -18375.094    41.767928   -18333.326 
 1615000    221.02731    -18380.99    41.112262   -18339.878 
 1616000    224.92723    -18377.96    41.837667   -18336.123 
 1617000    219.87961   -18376.701    40.898783   -18335.803 
 1618000    226.70477   -18380.151    42.168299   -18337.982 
 1619000    223.90062    -18372.46    41.646713   -18330.813 
 1620000    226.41358   -18380.711    42.114138   -18338.597 
 1621000    230.38335   -18378.395    42.852535   -18335.543 
 1622000    231.39858   -18376.404    43.041373   -18333.363 
 1623000    224.56439   -18375.076    41.770177   -18333.306 
 1624000    226.19853   -18375.038    42.074137   -18332.964 
 1625000    218.13344   -18373.934    40.573986    -18333.36 
 1626000    220.15042   -18380.046    40.949156   -18339.097 
 1627000    221.86122   -18374.676    41.267373   -18333.409 
 1628000    215.54661    -18379.31    40.092822   -18339.217 
 1629000     217.3124   -18382.255    40.421269   -18341.834 
 1630000    234.55394   -18377.555    43.628287   -18333.927 
 1631000    232.64382   -18380.683    43.272995    -18337.41 
 1632000    223.74934   -18378.222    41.618575   -18336.604 
 1633000    221.66747    -18373.59    41.231334   -18332.359 
 1634000    226.06164   -18378.195    42.048674   -18336.147 
 1635000    224.13346   -18380.765    41.690023   -18339.075 
 1636000    229.09417   -18379.146    42.612742   -18336.533 
 1637000    225.72557   -18384.079    41.986164   -18342.093 
 1638000    222.68724   -18380.414    41.421017   -18338.993 
 1639000    222.34717   -18375.817    41.357762    -18334.46 
 1640000    229.16257   -18377.289    42.625464   -18334.663 
 1641000    223.30562   -18378.915    41.536039   -18337.379 
 1642000     230.6849   -18376.472    42.908626   -18333.564 
 1643000    222.33266   -18375.028    41.355064   -18333.673 
 1644000    223.36343   -18373.887    41.546793    -18332.34 
 1645000    221.82469   -18370.953    41.260579   -18329.692 
 1646000    222.34823   -18377.496    41.357961   -18336.138 
 1647000    220.87199   -18378.219    41.083371   -18337.135 
 1648000    219.84061   -18377.131    40.891529   -18336.239 
 1649000    229.78724   -18375.187    42.741655   -18332.445 
 1650000    223.15484   -18378.748    41.507993    -18337.24 
 1651000    226.70467     -18379.2    42.168282   -18337.032 
 1652000    224.39695   -18380.265    41.739034   -18338.526 
 1653000    227.98438   -18379.918    42.406314   -18337.512 
 1654000    224.70602   -18377.815    41.796521   -18336.018 
 1655000    224.40373    -18374.96    41.740293   -18333.219 
 1656000     227.5359   -18374.063    42.322894    -18331.74 
 1657000    225.05146   -18372.346    41.860776   -18330.486 
 1658000    222.13634   -18374.023    41.318547   -18332.705 
 1659000     216.8412   -18376.824    40.333623    -18336.49 
 1660000    220.37462   -18382.201    40.990858    -18341.21 
 1661000    218.49052    -18381.65    40.640405   -18341.009 
 1662000    224.70967   -18380.492    41.797201   -18338.695 
 1663000    224.80903   -18379.497    41.815683   -18337.682 
 1664000    220.79007    -18374.78    41.068134   -18333.712 
 1665000    215.75693   -18379.195    40.131942   -18339.063 
 1666000    222.79066   -18379.035    41.440254   -18337.595 
 1667000    220.48683   -18379.564     41.01173   -18338.552 
 1668000    225.37328   -18380.019    41.920636   -18338.098 
 1669000    220.09727   -18378.048    40.939269   -18337.108 
 1670000    230.73651   -18376.837    42.918226   -18333.919 
 1671000    217.31025   -18376.617    40.420868   -18336.196 
 1672000    218.51538   -18381.042     40.64503   -18340.397 
 1673000     221.3794   -18377.838    41.177753    -18336.66 
 1674000    222.55468   -18376.746    41.396361   -18335.349 
 1675000     216.1528   -18380.926    40.205578    -18340.72 
 1676000    214.49086   -18373.751    39.896447   -18333.854 
 1677000    212.57233   -18376.984     39.53959   -18337.445 
 1678000    221.16981   -18381.339    41.138768     -18340.2 
 1679000    224.38027   -18377.702     41.73593   -18335.966 
 1680000    214.06207   -18377.856     39.81669   -18338.039 
 1681000    218.13201   -18374.368    40.573721   -18333.794 
 1682000     217.3144   -18379.841     40.42164   -18339.419 
 1683000    228.70722   -18384.083    42.540767   -18341.543 
 1684000    217.70812   -18383.848    40.494875   -18343.354 
 1685000    225.08056   -18373.924    41.866188   -18332.057 
 1686000    218.62073   -18370.875    40.664625    -18330.21 
 1687000    226.54495   -18374.764    42.138573   -18332.626 
 1688000    230.37563   -18378.231    42.851099    -18335.38 
 1689000    217.27131   -18374.695    40.413626   -18334.282 
 1690000    231.80612   -18377.731    43.117178   -18334.614 
 1691000    227.91574   -18375.725    42.393546   -18333.331 
 1692000    234.31068    -18378.67    43.583039   -18335.087 
 1693000    227.12341   -18376.292    42.246169   -18334.046 
 1694000    216.66243   -18379.445    40.300371   -18339.145 
 1695000    228.70502   -18376.709    42.540356   -18334.169 
 1696000    225.48444   -18377.711    41.941312   -18335.769 
 1697000    224.08838   -18379.955    41.681637   -18338.274 
 1698000    221.94527   -18378.477    41.283008   -18337.194 
 1699000    223.80434   -18375.821    41.628804   -18334.192 
 1700000    219.81686   -18374.986    40.887112   -18334.099 
 1701000     214.1901   -18381.036    39.840503   -18341.196 
 1702000    225.29797     -18379.9    41.906627   -18337.993 
 1703000    223.33128   -18378.963    41.540813   -18337.422 
 1704000    220.47675   -18380.578    41.009855   -18339.569 
 1705000    225.42913   -18383.369    41.931023   -18341.438 
 1706000     224.5891    -18380.69    41.774774   -18338.915 
 1707000    225.77846   -18375.085       41.996   -18333.089 
 1708000    223.58848   -18379.448    41.588653   -18337.859 
 1709000    231.70029   -18380.763    43.097493   -18337.666 
 1710000    225.77305   -18375.423    41.994995   -18333.428 
 1711000    221.56553   -18378.359    41.212373   -18337.147 
 1712000    229.76082   -18376.023    42.736741   -18333.287 
 1713000    230.91183   -18379.009    42.950835   -18336.058 
 1714000    220.61984     -18375.1     41.03647   -18334.063 
 1715000    213.89571   -18380.298    39.785746   -18340.513 
 1716000    223.03486   -18377.575    41.485676   -18336.089 
 1717000    228.10804   -18377.521    42.429316   -18335.092 
 1718000    220.40861   -18381.617    40.997181    -18340.62 
 1719000    222.66637   -18375.756    41.417135   -18334.338 
 1720000    215.96734   -18377.924     40.17108   -18337.753 
 1721000    219.32922   -18377.042    40.796408   -18336.246 
 1722000    219.13942    -18379.09    40.761104   -18338.329 
 1723000    217.51328   -18379.301    40.458634   -18338.842 
 1724000    220.30271   -18378.119    40.977482   -18337.142 
 1725000    206.04402   -18375.482     38.32529   -18337.157 
 1726000    225.65544   -18377.574    41.973118   -18335.601 
 1727000    223.51898   -18379.751    41.575725   -18338.175 
 1728000     223.8929   -18378.675    41.645277    -18337.03 
 1729000    234.51049   -18379.224    43.620205   -18335.604 
 1730000    224.05443   -18379.754    41.675323   -18338.078 
 1731000    223.06358   -18376.784    41.491019   -18335.293 
 1732000    220.70984   -18381.296    41.053211   -18340.243 
 1733000    222.19817   -18374.901    41.330048   -18333.571 
 1734000    224.01079   -18381.447    41.667205    -18339.78 
 1735000     224.0051   -18379.864    41.666147   -18338.198 
 1736000    222.09174    -18382.53    41.310251    -18341.22 
 1737000    227.74181    -18382.85    42.361195   -18340.489 
 1738000    226.25904   -18380.275    42.085391    -18338.19 
 1739000    218.95421   -18374.847    40.726655   -18334.121 
 1740000    224.62618   -18377.578     41.78167   -18335.796 
 1741000    227.64669   -18380.712    42.343501   -18338.368 
 1742000    220.97448   -18379.465    41.102435   -18338.363 
 1743000    216.14902   -18379.614    40.204874   -18339.409 
 1744000    224.06349   -18376.504    41.677008   -18334.827 
 1745000    222.01367   -18378.142     41.29573   -18336.846 
 1746000    235.40259   -18379.216    43.786141    -18335.43 
 1747000    232.78466   -18379.762    43.299192   -18336.463 
 1748000    233.75828   -18375.485    43.480291   -18332.005 
 1749000    228.32208   -18378.184    42.469128   -18335.715 
 1750000    230.65758   -18379.885    42.903544   -18336.982 
 1751000    220.17001   -18381.826    40.952799   -18340.873 
 1752000    225.25825   -18378.467    41.899239   -18336.567 
 1753000    226.09297   -18381.481    42.054502   -18339.426 
 1754000    226.23088   -18380.212    42.080154   -18338.132 
 1755000    216.72162   -18377.281     40.31138    -18336.97 
 1756000     223.5425    -18379.07    41.580101    -18337.49 
 1757000    230.01936   -18379.595    42.784831    -18336.81 
 1758000     229.4092   -18378.726    42.671338   -18336.054 
 1759000    219.37629   -18378.937    40.805163   -18338.132 
 1760000    224.88884   -18378.435    41.830528   -18336.605 
 1761000    229.42361   -18374.784    42.674018    -18332.11 
 1762000    226.24278   -18380.884    42.082366   -18338.802 
 1763000    221.96916   -18374.982    41.287452   -18333.695 
 1764000    222.93187   -18374.628    41.466521   -18333.161 
 1765000    232.45215   -18378.597    43.237343    -18335.36 
 1766000    226.76499   -18377.997    42.179501   -18335.818 
 1767000    221.90412   -18375.953    41.275353   -18334.678 
 1768000    229.98606   -18377.013    42.778637   -18334.235 
 1769000    216.37863    -18380.54    40.247583   -18340.292 
 1770000    226.15507   -18382.151    42.066053   -18340.085 
 1771000    215.88616   -18381.223     40.15598   -18341.067 
 1772000    214.72815   -18380.648    39.940584   -18340.707 
 1773000    209.36642   -18376.188    38.943274   -18337.245 
 1774000    222.84852    -18377.46    41.451016   -18336.009 
 1775000    234.43284   -18377.964    43.605761   -18334.359 
 1776000    218.98637   -18374.028    40.732635   -18333.296 
 1777000    222.39814   -18383.186    41.367243   -18341.819 
 1778000    216.04568   -18374.251    40.185653   -18334.066 
 1779000    219.72189   -18382.444    40.869446   -18341.575 
 1780000    221.48077   -18374.546    41.196608    -18333.35 
 1781000    219.91472   -18381.124    40.905314   -18340.219 
 1782000    233.68331   -18379.087    43.466345   -18335.621 
 1783000    226.86215   -18381.175    42.197574   -18338.978 
 1784000    220.82544   -18378.444    41.074713   -18337.369 
 1785000    224.10486   -18380.274    41.684703   -18338.589 
 1786000     227.7741   -18379.386    42.367201   -18337.019 
 1787000     222.2416   -18379.816    41.338126   -18338.477 
 1788000    217.55694   -18378.103    40.466754   -18337.636 
 1789000    220.95502   -18379.323    41.098816   -18338.224 
 1790000    226.31307   -18375.322    42.095442   -18333.226 
 1791000    214.43899   -18380.232      39.8868   -18340.345 
 1792000    216.59345   -18380.054    40.287541   -18339.766 
 1793000    220.24996   -18378.289     40.96767   -18337.321 
 1794000     222.0254   -18376.196    41.297911   -18334.898 
 1795000    222.03642   -18381.823    41.299962   -18340.523 
 1796000    225.03915   -18380.078    41.858485   -18338.219 
 1797000    227.94945   -18375.444    42.399818   -18333.044 
 1798000    220.48256    -18377.84    41.010936   -18336.829 
 1799000    225.07761   -18377.122    41.865639   -18335.256 
 1800000    225.48378    -18379.44    41.941188   -18337.499 
 1801000    227.43423   -18380.034    42.303984    -18337.73 
 1802000    224.22781   -18380.762    41.707571   -18339.054 
 1803000    226.98762   -18374.691    42.220911    -18332.47 
 1804000    231.98369   -18383.768    43.150207   -18340.618 
 1805000    226.36271   -18377.049    42.104675   -18334.944 
 1806000     227.3397   -18378.228    42.286399   -18335.941 
 1807000    237.83077   -18375.456    44.237796   -18331.218 
 1808000    230.73256   -18377.144     42.91749   -18334.226 
 1809000    234.00877   -18376.135    43.526884   -18332.608 
 1810000    225.52467   -18374.603    41.948795   -18332.655 
 1811000     229.4983   -18378.442     42.68791   -18335.754 
 1812000    225.55008    -18381.72    41.953522   -18339.767 
 1813000      229.584    -18376.32    42.703853   -18333.616 
 1814000    227.40879   -18379.707    42.299252   -18337.408 
 1815000      222.956   -18375.707    41.471008   -18334.236 
 1816000    224.49303   -18380.734    41.756905   -18338.977 
 1817000    224.30215   -18379.897    41.721399   -18338.175 
 1818000    215.92162   -18380.879    40.162575   -18340.716 
 1819000    222.09813   -18376.539     41.31144   -18335.227 
 1820000    212.65207   -18374.651    39.554422   -18335.096 
 1821000    221.79723   -18379.137     41.25547   -18337.882 
 1822000    216.35444   -18381.448    40.243084   -18341.205 
 1823000    219.53364   -18377.401    40.834431   -18336.566 
 1824000    229.08582   -18378.048    42.611189   -18335.437 
 1825000    220.25934   -18380.766    40.969415   -18339.797 
 1826000     221.0722   -18375.817    41.120612   -18334.696 
 1827000    225.57521   -18374.707    41.958196   -18332.749 
 1828000    226.05279   -18376.162    42.047028   -18334.115 
 1829000    219.58148   -18375.385     40.84333   -18334.541 
 1830000    213.69324   -18378.901    39.748086   -18339.153 
 1831000    223.76724   -18378.992    41.621904    -18337.37 
 1832000    221.18479   -18377.185    41.141555   -18336.043 
 1833000    228.76091   -18378.447    42.550754   -18335.896 
 1834000    232.24367   -18377.166    43.198565   -18333.968 
 1835000    226.82525   -18375.825     42.19071   -18333.634 
 1836000    225.07169   -18379.474    41.864537    -18337.61 
 1837000    219.43133   -18376.811    40.815402   -18335.995 
 1838000    220.22866   -18381.919    40.963709   -18340.955 
 1839000    216.45681   -18378.111    40.262125   -18337.849 
 1840000    215.77591   -18374.514    40.135473   -18334.378 
 1841000    221.37682   -18381.255    41.177272   -18340.078 
 1842000    227.24822   -18382.782    42.269385   -18340.513 
 1843000     211.8086   -18377.058    39.397532   -18337.661 
 1844000    225.69451   -18373.781    41.980385   -18331.801 
 1845000    212.39252   -18377.852    39.506145   -18338.346 
 1846000    227.48638   -18383.932    42.313684   -18341.618 
 1847000    226.02154   -18375.903    42.041215   -18333.862 
 1848000    228.19343   -18380.904    42.445198   -18338.459 
 1849000    230.26996   -18375.255    42.831444   -18332.424 
 1850000    228.00023   -18380.873    42.409262   -18338.464 
 1851000    227.33446   -18381.128    42.285425   -18338.842 
 1852000     223.2485    -18378.38    41.525414   -18336.855 
 1853000    216.92247   -18379.064    40.348739   -18338.716 
 1854000    216.88896   -18378.734    40.342507   -18338.391 
 1855000    226.17037   -18379.579    42.068898    -18337.51 
 1856000    222.79067   -18378.405    41.440256   -18336.964 
 1857000    228.92013   -18376.326    42.580369   -18333.746 
 1858000    227.63492    -18378.22    42.341313   -18335.879 
 1859000    218.80347   -18379.094    40.698617   -18338.396 
 1860000    215.45222   -18380.427    40.075265   -18340.352 
 1861000    214.80146   -18377.715    39.954221   -18337.761 
 1862000    227.00045   -18379.027    42.223298   -18336.804 
 1863000    210.14735   -18377.444    39.088531   -18338.355 
 1864000    222.67776   -18377.459    41.419255    -18336.04 
 1865000     225.2551   -18380.714    41.898653   -18338.815 
 1866000    224.36961   -18380.246    41.733948   -18338.512 
 1867000    218.91422   -18377.078    40.719215   -18336.359 
 1868000    218.57852   -18371.238    40.656773   -18330.582 
 1869000    232.00227   -18373.437    43.153662   -18330.284 
 1870000    222.86501   -18376.054    41.454084     -18334.6 
 1871000    224.58225   -18377.947      41.7735   -18336.174 
 1872000    217.85612   -18372.245    40.522404   -18331.723 
 1873000    224.08945   -18375.117    41.681836   -18333.435 
 1874000    217.86212   -18381.152     40.52352   -18340.628 
 1875000    225.00575   -18381.527    41.852273   -18339.675 
 1876000    214.00765   -18376.479    39.806567   -18336.672 
 1877000    218.48676   -18382.268    40.639706   -18341.628 
 1878000    219.67573    -18375.88     40.86086    -18335.02 
 1879000    207.96174   -18377.844    38.681996   -18339.162 
 1880000    216.24087   -18377.407    40.221958   -18337.185 
 1881000    214.47743   -18377.361     39.89395   -18337.467 
 1882000    215.45709   -18375.166    40.076171    -18335.09 
 1883000    224.14287   -18375.536    41.691772   -18333.844 
 1884000    232.21352   -18377.843    43.192957    -18334.65 
 1885000    233.60466   -18377.538    43.451716   -18334.086 
 1886000    229.98818   -18380.842    42.779031   -18338.063 
 1887000    221.46795   -18376.904    41.194223   -18335.709 
 1888000    210.62347    -18380.88    39.177092   -18341.703 
 1889000    212.62271   -18379.273    39.548961   -18339.724 
 1890000    219.78571    -18380.81    40.881317   -18339.928 
 1891000    214.09872   -18377.102    39.823507   -18337.279 
 1892000    230.77647   -18379.408    42.925657   -18336.482 
 1893000    220.05788   -18375.868    40.931943   -18334.936 
 1894000    223.64578   -18381.908    41.599312   -18340.309 
 1895000    224.91282   -18374.249    41.834988   -18332.414 
 1896000    227.88504   -18377.579    42.387835   -18335.191 
 1897000    224.03846   -18374.416    41.672352   -18332.743 
 1898000    229.11641   -18376.311    42.616878   -18333.694 
 1899000     227.5536   -18377.108    42.326186   -18334.782 
 1900000    220.92331   -18378.134    41.092917   -18337.041 
 1901000    217.75484   -18380.875    40.503565   -18340.371 
 1902000    232.12684   -18386.217    43.176833    -18343.04 
 1903000    226.60974   -18378.355    42.150623   -18336.204 
 1904000    221.82584   -18382.111    41.260792    -18340.85 
 1905000    231.23293   -18375.849    43.010562   -18332.838 
 1906000    219.38296   -18377.363    40.806403   -18336.557 
 1907000    223.64127   -18380.032    41.598473   -18338.434 
 1908000    217.05778   -18378.975    40.373907   -18338.601 
 1909000    236.73338   -18377.366    44.033675   -18333.332 
 1910000    231.97733   -18381.666    43.149024   -18338.517 
 1911000    224.56964   -18378.716    41.771155   -18336.945 
 1912000    216.27845   -18374.899    40.228949    -18334.67 
 1913000    220.87028   -18380.339    41.083054   -18339.256 
 1914000    219.43568   -18379.579     40.81621   -18338.763 
 1915000    220.37103   -18383.498     40.99019   -18342.508 
 1916000    210.17151   -18377.835    39.093024   -18338.742 
 1917000    225.51585   -18377.969    41.947154   -18336.022 
 1918000    222.33022   -18375.188     41.35461   -18333.834 
 1919000    224.92641    -18381.64    41.837515   -18339.803 
 1920000    231.79222   -18382.029    43.114593   -18338.915 
 1921000    224.30042   -18379.315    41.721078   -18337.593 
 1922000    234.57426   -18378.503    43.632066   -18334.871 
 1923000    216.09174   -18379.094    40.194219   -18338.899 
 1924000    229.02815   -18377.899    42.600461   -18335.299 
 1925000    220.54757   -18378.203    41.023028    -18337.18 
 1926000    216.44165   -18379.555    40.259305   -18339.296 
 1927000    221.85269    -18381.25    41.265787   -18339.984 
 1928000    218.47946   -18378.458    40.638347    -18337.82 
 1929000    222.13554   -18377.131    41.318398   -18335.813 
 1930000     224.7686    -18377.88    41.808162   -18336.072 
 1931000    223.98292   -18373.814    41.662021   -18332.152 
 1932000    222.99818   -18382.703    41.478855   -18341.224 
 1933000    209.15505   -18384.904    38.903957       -18346 
 1934000    229.34839   -18378.244    42.660028   -18335.584 
 1935000    221.95469   -18374.441    41.284759   -18333.156 
 1936000    212.10513   -18380.259    39.452688   -18340.806 
 1937000    227.45282   -18378.154     42.30744   -18335.847 
 1938000    209.28694   -18377.085    38.928491   -18338.156 
 1939000    228.11924   -18376.475      42.4314   -18334.044 
 1940000    218.96005   -18379.957     40.72774   -18339.229 
 1941000    230.08554    -18383.82    42.797141   -18341.023 
 1942000     218.9726   -18371.634    40.730074   -18330.904 
 1943000    224.93969   -18373.292    41.839985   -18331.452 
 1944000    226.56098   -18377.142    42.141555   -18335.001 
 1945000    226.74453   -18378.208    42.175695   -18336.033 
 1946000    226.74671   -18378.877    42.176101   -18336.701 
 1947000    223.82991   -18382.637    41.633561   -18341.003 
 1948000    230.89266   -18382.298    42.947271   -18339.351 
 1949000    225.02845   -18381.468    41.856496   -18339.612 
 1950000    222.23619   -18376.258     41.33712   -18334.921 
 1951000    212.73996   -18376.313     39.57077   -18336.742 
 1952000    220.08222   -18380.327     40.93647   -18339.391 
 1953000    214.35033   -18378.622    39.870308   -18338.751 
 1954000    220.17517   -18382.705    40.953759   -18341.751 
 1955000    226.94988   -18378.177    42.213892   -18335.963 
 1956000    214.83781   -18375.224    39.960982   -18335.263 
 1957000    220.21348   -18385.893    40.960885   -18344.932 
 1958000    225.63132    -18375.55    41.968632   -18333.581 
 1959000     214.9621   -18382.682      39.9841   -18342.698 
 1960000    222.50326   -18379.643    41.386797   -18338.256 
 1961000    226.76076   -18380.257    42.178715   -18338.079 
 1962000    228.93012   -18377.911    42.582227   -18335.329 
 1963000    226.71956   -18379.629    42.171051   -18337.458 
 1964000    231.76898   -18381.056     43.11027   -18337.945 
 1965000    224.15262   -18376.041    41.693586   -18334.347 
 1966000    222.51643   -18381.538    41.389246   -18340.149 
 1967000    224.85832   -18381.732     41.82485   -18339.907 
 1968000    216.59257    -18380.79    40.287377   -18340.503 
 1969000     231.2328   -18373.392    43.010538   -18330.382 
 1970000     228.3006   -18381.469    42.465133   -18339.004 
 1971000    234.05612   -18380.348    43.535691   -18336.812 
 1972000    225.39938   -18378.867    41.925491   -18336.942 
 1973000    223.16895   -18381.545    41.510619   -18340.034 
 1974000    217.38257   -18377.199     40.43432   -18336.764 
 1975000     214.2462   -18377.631    39.850939    -18337.78 
 1976000     224.1921   -18379.556     41.70093   -18337.855 
 1977000    217.79221   -18374.052    40.510516   -18333.541 
 1978000    219.32214   -18375.296    40.795092     -18334.5 
 1979000    224.90339   -18382.264    41.833234   -18340.431 
 1980000    215.51572   -18379.349    40.087077   -18339.262 
 1981000    216.45234   -18380.651    40.261293    -18340.39 
 1982000    228.98393   -18376.328    42.592237   -18333.736 
 1983000    218.59883   -18378.353    40.660552   -18337.693 
 1984000    232.52152    -18373.89    43.250247   -18330.639 
 1985000    219.45179   -18371.441    40.819206   -18330.621 
 1986000    222.89446   -18373.129    41.459562    -18331.67 
 1987000    230.62025   -18377.519      42.8966   -18334.623 
 1988000    231.58075   -18378.795    43.075258    -18335.72 
 1989000    225.34555   -18381.981    41.915477   -18340.066 
 1990000    222.05019   -18379.434    41.302523   -18338.132 
 1991000    226.44346   -18376.616    42.119695   -18334.497 
 1992000    232.52072   -18381.476    43.250097   -18338.226 
 1993000    224.12282   -18374.171    41.688043   -18332.483 
 1994000    216.09118   -18376.497    40.194115   -18336.302 
 1995000    224.12111   -18383.356    41.687725   -18341.668 
 1996000    232.48752   -18376.214    43.243923    -18332.97 
 1997000    228.01665   -18382.762    42.412317    -18340.35 
 1998000    231.33492   -18378.221    43.029533   -18335.191 
 1999000     218.9128   -18377.604    40.718953   -18336.885 
 2000000    226.89525   -18379.487    42.203729   -18337.284 
 2000005    236.07028   -18378.868    43.910334   -18334.957 
Loop time of 4230.86 on 16 procs for 1000000 steps with 1440 atoms

Performance: 20.421 ns/day, 1.175 hours/ns, 236.359 timesteps/s
71.4% CPU use with 16 MPI tasks x no OpenMP threads

MPI task timing breakdown:
Section |  min time  |  avg time  |  max time  |%varavg| %total
---------------------------------------------------------------
Pair    | 0.25331    | 581.89     | 1416.8     |2431.3 | 13.75
Bond    | 0.076569   | 0.10951    | 0.15993    |   8.1 |  0.00
Kspace  | 2181.3     | 2423.7     | 2852.9     | 504.8 | 57.29
Neigh   | 0.0052213  | 0.12582    | 0.28665    |  34.0 |  0.00
Comm    | 207.43     | 1122.3     | 1977.4     |2285.4 | 26.53
Output  | 0.6035     | 0.60657    | 0.62271    |   0.6 |  0.01
Modify  | 29.442     | 86.825     | 225.39     | 863.4 |  2.05
Other   |            | 15.35      |            |       |  0.36

Nlocal:    90 ave 196 max 0 min
Histogram: 8 0 0 0 0 0 0 0 3 5
Nghost:    726.875 ave 1030 max 439 min
Histogram: 8 0 0 0 0 0 0 0 0 8
Neighs:    7452.19 ave 18164 max 0 min
Histogram: 8 0 0 0 0 0 0 5 2 1

Total # of neighbors = 119235
Ave neighs/atom = 82.8021
Ave special neighs/atom = 0
Neighbor list builds = 383
Dangerous builds = 0
######################################################
reset_timestep  0

compute		Thot hot temp
compute 		T1 1 temp
compute 		T2 2 temp
compute 		T3 3 temp
compute 		T4 4 temp
compute 		T5 5 temp
compute 		T6 6 temp
compute 		T7 7 temp
compute 		T8 8 temp
compute 		T9 9 temp
compute 		T10 10 temp
compute 		Tcold cold temp

compute      	myStress middle stress/atom NULL virial
compute     	myKE middle ke/atom
compute     	myPE middle pe/atom

compute         flux  middle heat/flux  myKE myPE myStress

variable        r equal 9.76
variable        t equal 3.77
variable        midvol equal 2*3.14*${r}*${t}*25
variable        midvol equal 2*3.14*9.76*${t}*25
variable        midvol equal 2*3.14*9.76*3.77*25

variable        Jz equal c_flux[3]/${midvol}
variable        Jz equal c_flux[3]/5776.8464

fix             10 all ave/time 10 10000 100000 v_Jz f_5 f_6 c_T1 c_T2 c_T3 c_T4 c_T5 c_T6 c_T7 c_T8 c_T9 c_T10 file Temp.txt

run             1000000
Ewald initialization ...
  using 12-bit tables for long-range coulomb (../kspace.cpp:319)
  G vector (1/distance) = 0.209789
  estimated absolute RMS force accuracy = 0.159237
  estimated relative force accuracy = 0.0110584
  KSpace vectors: actual max1d max3d = 722 7 1687
                  kxmax kymax kzmax  = 7 7 6
Per MPI rank memory allocation (min/avg/max) = 18.37 | 19.07 | 19.77 Mbytes
Step Temp PotEng KinEng TotEng 
       0    236.07028   -18378.868    43.910334   -18334.957 
    1000    231.10187   -18377.724    42.986184   -18334.738 
    2000    226.03549   -18375.928    42.043811   -18333.884 
    3000     221.5858   -18378.568    41.216145   -18337.352 
    4000    220.06132   -18375.043    40.932582    -18334.11 
    5000    234.47681    -18381.94     43.61394   -18338.326 
    6000    218.03133   -18375.072    40.554994   -18334.517 
    7000    226.66867   -18377.778    42.161585   -18335.617 
    8000    227.50326   -18374.708    42.316823   -18332.391 
    9000    219.50913   -18377.363    40.829872   -18336.533 
   10000    226.54627   -18379.507    42.138819   -18337.368 
   11000    220.53285   -18381.448     41.02029   -18340.427 
   12000    220.50851   -18380.144    41.015763   -18339.128 
   13000    219.07769   -18378.703    40.749621   -18337.954 
   14000    229.62437   -18381.424    42.711361   -18338.712 
   15000    224.56952   -18380.502    41.771131   -18338.731 
   16000    218.20001   -18376.021     40.58637   -18335.435 
   17000    217.72748   -18380.709    40.498476   -18340.211 
   18000    213.24025   -18378.615    39.663826   -18338.951 
   19000    220.25674   -18374.353    40.968932   -18333.384 
   20000    220.36717    -18374.42    40.989473    -18333.43 
   21000    220.00603   -18381.962    40.922298   -18341.039 
   22000     229.9742   -18380.478    42.776432   -18337.702 
   23000    234.86755   -18378.312    43.686621   -18334.626 
   24000    217.95497   -18375.408     40.54079   -18334.867 
   25000    219.15445   -18381.186      40.7639   -18340.422 
   26000    222.65403   -18376.222    41.414841   -18334.807 
   27000    221.73426   -18374.588    41.243759   -18333.344 
   28000    224.76346    -18375.88    41.807206   -18334.073 
   29000    226.01965   -18380.013    42.040864   -18337.972 
   30000    226.22211   -18382.169    42.078522    -18340.09 
   31000    224.90058   -18378.861    41.832711   -18337.028 
   32000    218.44069   -18379.261    40.631137   -18338.629 
   33000    223.74114   -18379.671    41.617049   -18338.054 
   34000    219.87773   -18375.483    40.898433   -18334.585 
   35000    227.97359   -18375.957    42.404306   -18333.553 
   36000    225.04903   -18380.495    41.860324   -18338.634 
   37000    222.10651   -18371.665    41.312999   -18330.352 
   38000    220.01589   -18374.757    40.924132   -18333.833 
   39000    212.96401   -18376.948    39.612446   -18337.335 
   40000    225.23754   -18376.874    41.895387   -18334.979 
   41000    224.79501   -18375.952    41.813074   -18334.139 
   42000    224.87507   -18380.066    41.827967   -18338.238 
   43000    222.95366   -18377.242    41.470574   -18335.772 
   44000    220.40323   -18376.222     40.99618   -18335.225 
   45000    221.33606   -18377.749    41.169692   -18336.579 
   46000    223.15124   -18373.697    41.507323    -18332.19 
   47000    220.12891   -18377.292    40.945154   -18336.347 
   48000    230.93502   -18377.486    42.955149   -18334.531 
   49000    219.16627   -18376.421    40.766099   -18335.655 
   50000    220.74934   -18373.512    41.060558   -18332.451 
   51000    220.90915   -18380.921    41.090283   -18339.831 
   52000    219.38326   -18377.555    40.806459   -18336.749 
   53000    225.27609   -18378.493    41.902557    -18336.59 
   54000    221.95047   -18378.341    41.283974   -18337.057 
   55000    218.26625   -18375.592     40.59869   -18334.993 
   56000    224.26634   -18378.486    41.714739   -18336.771 
   57000    221.66979   -18377.854    41.231766   -18336.622 
   58000     233.7708   -18377.494     43.48262   -18334.011 
   59000    218.27269   -18378.266    40.599889   -18337.667 
   60000    231.60503   -18377.322    43.079774   -18334.242 
   61000    223.22387   -18374.606    41.520834   -18333.086 
   62000    214.74652   -18374.581    39.944002   -18334.637 
   63000    216.91126   -18372.391    40.346655   -18332.044 
   64000    212.71335     -18376.7    39.565821   -18337.135 
   65000    226.64513   -18373.807    42.157206    -18331.65 
   66000    220.06299   -18377.905    40.932893   -18336.972 
   67000    223.86174   -18376.988    41.639481   -18335.348 
   68000    217.03051   -18374.982    40.368836   -18334.614 
   69000    221.64182   -18377.647    41.226565    -18336.42 
   70000    223.43141   -18370.443    41.559436   -18328.884 
   71000    216.52227   -18376.293      40.2743   -18336.019 
   72000    223.44172   -18378.145    41.561355   -18336.584 
   73000    222.35656   -18377.713    41.359509   -18336.353 
   74000    224.70379   -18377.384    41.796106   -18335.588 
   75000    230.33637   -18377.423    42.843797   -18334.579 
   76000     229.1626   -18378.283     42.62547   -18335.658 
   77000    227.02394   -18375.364    42.227667   -18333.136 
   78000    220.24034   -18377.413    40.965881   -18336.447 
   79000    220.06247   -18378.964    40.932797   -18338.032 
   80000    228.31563   -18380.917    42.467927   -18338.449 
   81000    229.57108   -18378.624    42.701449   -18335.922 
   82000    219.76111    -18378.95    40.876742   -18338.073 
   83000    223.10891   -18379.482     41.49945   -18337.983 
   84000    219.76281   -18376.748    40.877058   -18335.871 
   85000    217.99892    -18379.81    40.548966   -18339.261 
   86000    222.77154   -18374.105    41.436699   -18332.669 
   87000     224.5564   -18377.065    41.768691   -18335.296 
   88000    213.75589   -18380.146    39.759739   -18340.386 
   89000    224.96774   -18378.496    41.845203   -18336.651 
   90000    226.93582   -18380.573    42.211277   -18338.362 
   91000    227.85827   -18375.443    42.382857    -18333.06 
   92000    227.20877   -18377.972    42.262047    -18335.71 
   93000    231.07683   -18378.122    42.981527   -18335.141 
   94000    217.63062   -18374.534    40.480459   -18334.054 
   95000    229.01362    -18375.71    42.597759   -18333.113 
   96000    221.92758   -18380.901    41.279717   -18339.621 
   97000    221.37803   -18381.024    41.177498   -18339.847 
   98000    216.93249   -18371.878    40.350604   -18331.527 
   99000    225.96222   -18380.477    42.030181   -18338.447 
  100000    222.20526   -18378.877    41.331367   -18337.546 
  101000    216.90898    -18376.03    40.346231   -18335.684 
  102000    224.40303   -18376.033    41.740163   -18334.293 
  103000    222.86968   -18378.303    41.454952   -18336.848 
  104000    219.12163   -18378.089    40.757795   -18337.331 
  105000     224.5893   -18376.407    41.774811   -18334.632 
  106000    219.37296   -18376.985    40.804544    -18336.18 
  107000    217.01362   -18375.416    40.365694    -18335.05 
  108000    219.81828   -18375.791    40.887376   -18334.903 
  109000    228.21121   -18382.122    42.448506   -18339.674 
  110000    229.89359   -18382.452    42.761437   -18339.691 
  111000    229.86132   -18377.405    42.755436   -18334.649 
  112000    222.80525   -18377.324    41.442969   -18335.881 
  113000    230.94858   -18379.433    42.957671   -18336.476 
  114000    225.99531    -18377.45    42.036336   -18335.414 
  115000    218.89264   -18381.672    40.715202   -18340.956 
  116000    222.58988   -18381.555    41.402909   -18340.152 
  117000    225.56825   -18382.193    41.956901   -18340.236 
  118000    232.70873   -18377.641    43.285069   -18334.356 
  119000    227.95235   -18379.309    42.400357   -18336.909 
  120000    224.38431   -18377.409    41.736681   -18335.672 
  121000     232.7292   -18380.176    43.288876   -18336.888 
  122000    231.07988   -18380.853    42.982093   -18337.871 
  123000    214.08608   -18376.191    39.821155    -18336.37 
  124000    217.33366   -18382.329    40.425223   -18341.904 
  125000    216.10552   -18382.096    40.196782   -18341.899 
  126000    218.75358   -18377.975    40.689335   -18337.285 
  127000    224.14563   -18378.073    41.692286   -18336.381 
  128000    216.53632   -18374.928    40.276913   -18334.651 
  129000    218.46129   -18378.941    40.634969   -18338.306 
  130000    216.77157   -18374.529    40.320671   -18334.208 
  131000    218.80555   -18375.943    40.699003   -18335.244 
  132000    228.38245   -18372.735    42.480358   -18330.254 
  133000    220.21773   -18379.938    40.961676   -18338.977 
  134000    224.79318   -18376.864    41.812734   -18335.052 
  135000     225.0276   -18376.497    41.856338   -18334.641 
  136000    217.97542   -18380.885    40.544594   -18340.341 
  137000    229.30274    -18380.34    42.651536   -18337.689 
  138000    217.08092    -18382.79    40.378213   -18342.412 
  139000    228.88138   -18379.016     42.57316   -18336.443 
  140000    220.10932   -18376.167    40.941511   -18335.225 
  141000    227.28381   -18376.614    42.276004   -18334.338 
  142000    227.66104   -18378.727    42.346172   -18336.381 
  143000    223.03722   -18377.314    41.486115   -18335.828 
  144000    230.58615   -18376.109    42.890258   -18333.219 
  145000    220.37041   -18377.839    40.990075   -18336.849 
  146000    220.94167   -18377.126    41.096332    -18336.03 
  147000    228.16164   -18381.135    42.439286   -18338.695 
  148000    225.97808   -18377.887    42.033132   -18335.854 
  149000    222.18463   -18380.101    41.327529   -18338.773 
  150000    225.54329   -18375.401    41.952258   -18333.449 
  151000    221.12368   -18375.748    41.130188   -18334.618 
  152000    227.07316   -18384.382    42.236823   -18342.145 
  153000    229.59497   -18379.746    42.705892    -18337.04 
  154000    216.67281    -18376.69    40.302302   -18336.388 
  155000    220.54727   -18377.625    41.022972   -18336.602 
  156000    220.30776   -18373.087    40.978421   -18332.108 
  157000    224.06501   -18379.386     41.67729   -18337.709 
  158000    225.29788   -18379.728    41.906611   -18337.821 
  159000    230.18178    -18385.25    42.815042   -18342.435 
  160000    233.96168     -18375.9    43.518125   -18332.382 
  161000    226.85831   -18379.918    42.196859   -18337.721 
  162000    219.65418   -18376.486    40.856853    -18335.63 
  163000    221.16781    -18374.47    41.138395   -18333.331 
  164000    219.36358   -18378.916    40.802799   -18338.113 
  165000     213.7145   -18380.296     39.75204   -18340.544 
  166000    226.97279   -18378.354    42.218152   -18336.136 
  167000    213.19481   -18384.926    39.655374   -18345.271 
  168000    226.90945    -18375.93    42.206371   -18333.723 
  169000    216.82765   -18372.797    40.331103   -18332.466 
  170000    211.78546   -18377.661    39.393228   -18338.267 
  171000    221.32221   -18380.904    41.167114   -18339.737 
  172000    221.74754   -18380.459    41.246228   -18339.213 
  173000    225.15021   -18376.626    41.879144   -18334.747 
  174000     224.6577   -18377.567    41.787534    -18335.78 
  175000    216.51448   -18382.004    40.272852   -18341.731 
  176000    221.44263   -18377.984    41.189514   -18336.795 
  177000    229.64818   -18384.672    42.715789   -18341.956 
  178000    224.38472    -18383.33    41.736758   -18341.593 
  179000    233.30067   -18376.045    43.395173    -18332.65 
  180000    225.14275   -18380.155    41.877756   -18338.277 
  181000    218.39323   -18380.611    40.622309   -18339.989 
  182000    219.79944   -18373.031    40.883872   -18332.148 
  183000    221.88718   -18377.684    41.272203   -18336.412 
  184000    230.13739   -18371.536    42.806785   -18328.729 
  185000    214.44661   -18381.859    39.888216   -18341.971 
  186000    217.32712   -18374.739    40.424006   -18334.315 
  187000    220.28921   -18378.309    40.974971   -18337.334 
  188000    220.59627    -18373.74    41.032085   -18332.707 
  189000     219.8837   -18376.188    40.899545   -18335.289 
  190000    228.14273   -18380.498    42.435768   -18338.063 
  191000    225.14307   -18379.436    41.877816   -18337.558 
  192000    226.51262   -18378.538    42.132559   -18336.406 
  193000    219.16303   -18375.013    40.765496   -18334.247 
  194000     224.0559   -18374.615    41.675596   -18332.939 
  195000    222.70052   -18377.546    41.423487   -18336.123 
  196000     227.9087   -18374.213    42.392237   -18331.821 
  197000    218.91804   -18380.864    40.719927   -18340.144 
  198000    225.21778   -18375.525    41.891711   -18333.634 
  199000    220.85323   -18375.067    41.079881   -18333.987 
  200000    219.26287   -18378.371    40.784067   -18337.587 
  201000    225.93623   -18381.261    42.025347   -18339.236 
  202000    226.95028   -18372.171    42.213966   -18329.957 
  203000    230.28672   -18381.739    42.834563   -18338.904 
  204000    217.12024   -18375.389    40.385526   -18335.004 
  205000     217.8506   -18380.254    40.521377   -18339.732 
  206000    225.41285   -18378.859    41.927996   -18336.931 
  207000    216.80961   -18377.787    40.327747   -18337.459 
  208000       222.53   -18373.989     41.39177   -18332.597 
  209000    220.89685   -18378.508    41.087995    -18337.42 
  210000    225.99891    -18371.36    42.037006   -18329.323 
  211000    224.20885   -18381.648    41.704045   -18339.944 
  212000    225.42619   -18378.987    41.930478   -18337.056 
  213000    224.58059   -18377.317    41.773191   -18335.544 
  214000    218.90658   -18377.624    40.717794   -18336.906 
  215000    218.03703       -18375    40.556054   -18334.444 
  216000    221.19948   -18376.941    41.144287   -18335.797 
  217000    211.76428   -18383.008    39.389289   -18343.619 
  218000    220.25987   -18380.868    40.969513   -18339.899 
  219000      229.245   -18380.492    42.640796   -18337.851 
  220000    225.05325   -18378.252    41.861108   -18336.391 
  221000    216.48757   -18377.839    40.267846   -18337.571 
  222000     216.4128   -18377.927    40.253939   -18337.673 
  223000    222.90152   -18379.426    41.460876   -18337.965 
  224000    221.80194   -18381.171    41.256348   -18339.914 
  225000    226.02922   -18383.587    42.042645   -18341.544 
  226000    216.57453    -18372.61     40.28402   -18332.326 
  227000    220.01192   -18374.927    40.923395   -18334.003 
  228000    231.92056   -18376.086    43.138464   -18332.948 
  229000    231.86481   -18376.398    43.128095    -18333.27 
  230000    232.61867   -18377.451    43.268317   -18334.183 
  231000    218.75404   -18375.434    40.689421   -18334.744 
  232000    224.70201   -18377.567    41.795775   -18335.771 
  233000    221.67889   -18370.518     41.23346   -18329.284 
  234000    225.64761   -18372.702    41.971662   -18330.731 
  235000    222.82182   -18374.632     41.44605   -18333.186 
  236000    220.11401   -18376.914    40.942383   -18335.972 
  237000    217.04951   -18377.884    40.372371   -18337.512 
  238000    230.82826    -18378.27    42.935291   -18335.334 
  239000    225.91924   -18377.464    42.022187   -18335.442 
  240000    218.46672    -18380.69    40.635978   -18340.054 
  241000    217.25329   -18379.147    40.410275   -18338.737 
  242000    221.32917   -18383.753    41.168409   -18342.584 
  243000    221.35765   -18376.799    41.173706   -18335.625 
  244000    221.63111   -18379.823    41.224571   -18338.598 
  245000    215.88195   -18371.263    40.155197   -18331.108 
  246000    217.71294    -18376.53    40.495771   -18336.035 
  247000    214.52215   -18380.991    39.902268   -18341.088 
  248000    223.82518   -18379.202    41.632681   -18337.569 
  249000    223.36908    -18376.17    41.547845   -18334.622 
  250000    225.22299   -18379.279    41.892682   -18337.386 
  251000    217.17484   -18379.452    40.395681   -18339.057 
  252000    228.10895   -18376.642    42.429484   -18334.212 
  253000    231.96847   -18377.436    43.147376   -18334.289 
  254000    226.06845   -18376.404     42.04994   -18334.354 
  255000    219.40295   -18382.348    40.810123   -18341.538 
  256000    209.93924   -18375.278    39.049822   -18336.228 
  257000     225.2074   -18377.335    41.889782   -18335.445 
  258000     229.5891    -18380.18      42.7048   -18337.475 
  259000    228.92289   -18378.203    42.580881   -18335.623 
  260000    223.47577   -18377.777    41.567689    -18336.21 
  261000     220.7259   -18377.859    41.056197   -18336.803 
  262000    219.24468   -18378.959    40.780684   -18338.179 
  263000    235.98105   -18383.103    43.893737   -18339.209 
  264000    212.55799   -18379.462    39.536922   -18339.925 
  265000    217.58686   -18378.415    40.472319   -18337.943 
  266000     219.3992   -18379.712    40.809424   -18338.903 
  267000    225.32716   -18377.925    41.912057   -18336.013 
  268000     230.8254   -18374.874     42.93476   -18331.939 
  269000    233.57598   -18372.786    43.446382    -18329.34 
  270000    215.79673   -18378.067    40.139347   -18337.928 
  271000    216.27697   -18385.051    40.228674   -18344.822 
  272000    221.78227   -18381.513    41.252689    -18340.26 
  273000    223.54826   -18380.763    41.581172   -18339.182 
  274000    227.16519   -18377.652    42.253941   -18335.398 
  275000    223.87768   -18381.053    41.642447   -18339.411 
  276000    218.25044   -18380.104    40.595749   -18339.508 
  277000    228.28756   -18378.077    42.462708   -18335.614 
  278000    216.08171   -18375.454    40.192354   -18335.262 
  279000    226.32914    -18378.75     42.09843   -18336.651 
  280000     219.2135   -18376.215    40.774884    -18335.44 
  281000    221.19721   -18381.373    41.143864    -18340.23 
  282000    221.61539   -18378.523    41.221648   -18337.301 
  283000     223.3436   -18379.365    41.543104   -18337.822 
  284000    229.20384   -18378.182    42.633139   -18335.549 
  285000    227.10643   -18377.531    42.243011   -18335.288 
  286000    229.78545   -18374.833    42.741323   -18332.092 
  287000    220.18232   -18377.843    40.955089   -18336.888 
  288000    220.87559   -18378.843    41.084041   -18337.759 
  289000    228.88184     -18380.1    42.573247   -18337.527 
  290000    220.77648   -18372.808    41.065605   -18331.742 
  291000    225.67179   -18377.187     41.97616   -18335.211 
  292000    223.65492   -18381.334     41.60101   -18339.733 
  293000    222.21616   -18380.639    41.333394   -18339.306 
  294000    229.00319   -18375.666    42.595817   -18333.071 
  295000    229.31718   -18377.549    42.654223   -18334.895 
  296000    224.33227   -18373.293    41.727001   -18331.566 
  297000    225.19825   -18375.464    41.888079   -18333.576 
  298000    218.95804   -18384.856    40.727367   -18344.128 
  299000    218.92242   -18378.794     40.72074   -18338.074 
  300000    218.49033   -18376.486    40.640369   -18335.845 
  301000    227.78137   -18379.677    42.368553   -18337.309 
  302000    219.96635   -18378.647    40.914917   -18337.732 
  303000    217.20554     -18380.6    40.401392   -18340.198 
  304000    209.67551   -18377.014    39.000766   -18338.014 
  305000    222.41488   -18379.354    41.370358   -18337.983 
  306000    225.27176   -18378.461    41.901753   -18336.559 
  307000    231.52772   -18375.983    43.065394   -18332.917 
  308000    221.19869   -18374.668    41.144139   -18333.524 
  309000    227.39682   -18376.921    42.297026   -18334.624 
  310000     227.8281   -18379.306    42.377246   -18336.928 
  311000    229.38352   -18375.284    42.666561   -18332.618 
  312000    226.73905   -18379.636    42.174677   -18337.461 
  313000    220.10879   -18375.265    40.941411   -18334.324 
  314000    224.20995    -18378.33    41.704249   -18336.625 
  315000    226.36423       -18378    42.104957   -18335.895 
  316000    231.18384   -18377.979     43.00143   -18334.977 
  317000    230.20347   -18375.289    42.819077    -18332.47 
  318000    223.63913   -18376.725    41.598075   -18335.127 
  319000    226.76994   -18377.795    42.180421   -18335.614 
  320000    222.67177   -18377.889     41.41814   -18336.471 
  321000    229.68893   -18379.722     42.72337   -18336.999 
  322000    230.38144   -18376.244     42.85218   -18333.392 
  323000    241.50652   -18377.529    44.921505   -18332.608 
  324000    225.79027   -18377.425    41.998197   -18335.426 
  325000     230.3122    -18374.61    42.839301   -18331.771 
  326000    222.59951   -18386.593      41.4047   -18345.188 
  327000    218.00402   -18376.848    40.549914   -18336.298 
  328000    214.64302   -18372.882     39.92475   -18332.957 
  329000    219.52371   -18379.793    40.832585   -18338.961 
  330000     232.0286    -18381.94     43.15856   -18338.782 
  331000    227.12917   -18376.804     42.24724   -18334.557 
  332000    220.49234   -18375.367    41.012754   -18334.354 
  333000    220.64155   -18381.717    41.040509   -18340.676 
  334000    231.49715   -18380.892    43.059708   -18337.832 
  335000    234.95437   -18375.939     43.70277   -18332.236 
  336000    234.32989   -18378.926    43.586613    -18335.34 
  337000    228.59281    -18379.07    42.519485    -18336.55 
  338000    220.03364   -18380.858    40.927434   -18339.931 
  339000    218.97207   -18377.143    40.729976   -18336.413 
  340000    213.11024   -18381.343    39.639644   -18341.703 
  341000    221.74434   -18377.715    41.245633   -18336.469 
  342000    218.57911   -18383.109    40.656884   -18342.452 
  343000    223.34922   -18375.867     41.54415   -18334.323 
  344000      226.912   -18370.024    42.206846   -18327.817 
  345000    225.52049   -18378.766    41.948018   -18336.818 
  346000    223.82226    -18372.58    41.632138   -18330.947 
  347000      223.917   -18379.896     41.64976   -18338.246 
  348000    226.09093   -18379.278    42.054122   -18337.224 
  349000    229.05274   -18378.577    42.605034   -18335.972 
  350000    227.10732   -18370.931    42.243176   -18328.688 
  351000    234.79465       -18379    43.673061   -18335.327 
  352000    222.55021   -18376.278    41.395529   -18334.883 
  353000    229.13744   -18375.698     42.62079   -18333.077 
  354000      221.944   -18381.064    41.282771   -18339.781 
  355000    219.60793   -18376.263    40.848249   -18335.415 
  356000    212.92605   -18376.072    39.605384   -18336.467 
  357000    213.96604   -18374.545    39.798828   -18334.746 
  358000    222.57472   -18381.623    41.400089   -18340.223 
  359000    220.85276   -18379.301    41.079795   -18338.221 
  360000    217.50093   -18378.734    40.456336   -18338.277 
  361000     217.1797   -18375.579    40.396586   -18335.182 
  362000    229.57981   -18375.178    42.703072   -18332.475 
  363000    222.21884   -18377.814    41.333894    -18336.48 
  364000    228.18852   -18377.979    42.444285   -18335.535 
  365000    226.56805   -18379.405    42.142869   -18337.262 
  366000    218.83356   -18378.084    40.704213    -18337.38 
  367000    216.88998   -18377.325    40.342696   -18336.982 
  368000    215.44555   -18381.661    40.074024   -18341.587 
  369000    224.17436   -18374.572     41.69763   -18332.874 
  370000    214.67985   -18380.178      39.9316   -18340.246 
  371000    221.43234   -18377.573      41.1876   -18336.385 
  372000    226.13465   -18378.266    42.062255   -18336.204 
  373000    224.36216   -18376.634    41.732561   -18334.901 
  374000     225.1797   -18377.468    41.884629   -18335.584 
  375000    222.31815   -18378.561    41.352365   -18337.209 
  376000    214.19025   -18374.708    39.840532   -18334.867 
  377000    223.04574   -18375.523    41.487701   -18334.036 
  378000    220.39656   -18372.952    40.994939   -18331.957 
  379000    217.89551   -18381.434     40.52973   -18340.905 
  380000    224.11935   -18378.199    41.687398   -18336.511 
  381000    216.32517   -18375.471    40.237639   -18335.233 
  382000     218.8381   -18376.151    40.705057   -18335.446 
  383000    223.56072   -18378.061    41.583491   -18336.478 
  384000    221.26998   -18377.771      41.1574   -18336.614 
  385000    218.91561   -18372.304    40.719475   -18331.584 
  386000    216.09415   -18377.883    40.194668   -18337.688 
  387000    220.30428   -18381.946    40.977774   -18340.968 
  388000    229.12676   -18375.959    42.618804   -18333.341 
  389000     230.2499    -18378.05    42.827714   -18335.222 
  390000    225.28597   -18373.442    41.904396   -18331.538 
  391000    221.03141   -18375.101    41.113025   -18333.988 
  392000    227.31462   -18380.438    42.281736   -18338.156 
  393000    221.25706   -18375.639    41.154997   -18334.484 
  394000    233.63828   -18378.165    43.457971   -18334.707 
  395000     226.9658   -18377.342    42.216854   -18335.125 
  396000    224.61698   -18374.606     41.77996   -18332.826 
  397000    221.10633   -18377.141     41.12696   -18336.014 
  398000    231.82752   -18376.273    43.121158   -18333.152 
  399000    230.41024   -18377.807    42.857538   -18334.949 
  400000    234.12174   -18385.782    43.547897   -18342.234 
  401000    223.63485   -18382.065    41.597277   -18340.468 
  402000    221.49988   -18374.474    41.200162   -18333.274 
  403000    227.20383   -18376.441    42.261127    -18334.18 
  404000    234.30241    -18377.45    43.581501   -18333.869 
  405000    226.37192   -18376.678    42.106388   -18334.571 
  406000    226.62182   -18381.758     42.15287   -18339.605 
  407000     215.8619   -18375.376    40.151468   -18335.224 
  408000    218.07249   -18375.239     40.56265   -18334.676 
  409000    220.07312   -18374.467    40.934777   -18333.532 
  410000    214.18373   -18378.771     39.83932   -18338.931 
  411000    217.67868   -18375.071    40.489399   -18334.581 
  412000    220.06883   -18378.305    40.933979   -18337.371 
  413000    235.32072   -18374.814    43.770912   -18331.043 
  414000    229.69264   -18380.065     42.72406   -18337.341 
  415000    227.51484    -18381.36    42.318977   -18339.041 
  416000    223.30231   -18381.031    41.535424   -18339.496 
  417000    223.74207   -18372.898    41.617221    -18331.28 
  418000    218.25717   -18376.818       40.597   -18336.221 
  419000    227.07716   -18379.334    42.237566   -18337.097 
  420000     218.5425   -18378.469    40.650075   -18337.819 
  421000    220.78045   -18380.181    41.066344   -18339.115 
  422000    227.00303   -18375.855    42.223778   -18333.632 
  423000     217.8246   -18379.257    40.516541    -18338.74 
  424000    229.05895   -18384.049    42.606191   -18341.443 
  425000    221.63494   -18377.278    41.225283   -18336.053 
  426000    226.32548   -18378.044    42.097749   -18335.947 
  427000    224.93333   -18379.814    41.838803   -18337.975 
  428000    218.33045   -18379.682    40.610631   -18339.072 
  429000    217.71558    -18381.02    40.496263   -18340.524 
  430000    222.03014   -18381.592    41.298794   -18340.293 
  431000    230.89272   -18377.505     42.94728   -18334.558 
  432000    227.00557   -18377.892    42.224251   -18335.668 
  433000    223.12983    -18378.23    41.503343   -18336.727 
  434000    225.52735   -18376.884    41.949294   -18334.935 
  435000    229.74195   -18372.393    42.733231    -18329.66 
  436000    226.50625   -18376.575    42.131375   -18334.443 
  437000    227.99983   -18380.888    42.409187   -18338.479 
  438000    216.14195   -18376.451    40.203559   -18336.247 
  439000    225.24244   -18377.386    41.896299   -18335.489 
  440000    219.96796   -18374.813    40.915216   -18333.898 
  441000    218.36239   -18379.111    40.616573   -18338.494 
  442000    229.26646   -18380.865    42.644789    -18338.22 
  443000    218.89748   -18377.167    40.716103   -18336.451 
  444000    225.16856    -18373.73    41.882556   -18331.847 
  445000    217.60426   -18372.258    40.475557   -18331.783 
  446000    227.49976   -18374.842    42.316172   -18332.526 
  447000     223.4206   -18376.024    41.557427   -18334.466 
  448000    231.05282   -18375.308     42.97706   -18332.331 
  449000    231.11607   -18380.975    42.988826   -18337.987 
  450000    231.05539    -18378.58    42.977538   -18335.602 
  451000    218.76858    -18376.19    40.692127   -18335.498 
  452000    226.48537    -18379.03    42.127491   -18336.902 
  453000    220.02541   -18374.801    40.925903   -18333.875 
  454000     228.8726   -18377.521    42.571527    -18334.95 
  455000    229.80539   -18378.694    42.745031   -18335.949 
  456000    223.81687   -18375.376    41.631135   -18333.745 
  457000    212.14289   -18372.646    39.459712   -18333.186 
  458000    213.61569   -18377.692    39.733661   -18337.958 
  459000    226.50636   -18375.825    42.131395   -18333.693 
  460000    224.73157   -18378.971    41.801275    -18337.17 
  461000    222.26281   -18372.088    41.342071   -18330.745 
  462000    230.17425   -18380.109    42.813641   -18337.295 
  463000    228.53521   -18370.849    42.508772    -18328.34 
  464000     228.9779   -18376.489    42.591115   -18333.898 
  465000    222.39702   -18376.009    41.367035   -18334.642 
  466000     218.9257   -18380.513    40.721351   -18339.792 
  467000    218.84617   -18378.026    40.706558   -18337.319 
  468000    221.61308   -18380.094    41.221218   -18338.873 
  469000    225.83476   -18376.886    42.006473   -18334.879 
  470000    220.06915   -18373.859     40.93404   -18332.925 
  471000    224.72616   -18378.237    41.800268   -18336.436 
  472000    223.04786   -18377.047    41.488095   -18335.559 
  473000    226.70871   -18377.614    42.169033   -18335.445 
  474000    219.51439   -18379.042    40.830851   -18338.211 
  475000    223.24337   -18387.432    41.524462   -18345.907 
  476000    226.73798   -18379.955    42.174476    -18337.78 
  477000    226.78702   -18371.916    42.183599   -18329.732 
  478000    216.69045   -18379.132    40.305583   -18338.826 
  479000    229.74944   -18376.627    42.734625   -18333.892 
  480000    217.99949   -18374.229    40.549071    -18333.68 
  481000     216.3212   -18379.313    40.236899   -18339.076 
  482000    215.46915   -18380.971    40.078415   -18340.892 
  483000    228.50864   -18377.066    42.503829   -18334.562 
  484000    227.69802   -18373.958     42.35305   -18331.605 
  485000    219.26654   -18377.991     40.78475   -18337.207 
  486000    218.56892    -18374.22    40.654988   -18333.566 
  487000    221.48316   -18377.804    41.197053   -18336.607 
  488000    232.47194   -18377.041    43.241024     -18333.8 
  489000    231.64477   -18382.412    43.087166   -18339.324 
  490000    222.22103   -18381.007      41.3343   -18339.673 
  491000    219.74804   -18379.306    40.874312   -18338.431 
  492000     224.1324   -18376.366    41.689825   -18334.676 
  493000    219.21681   -18378.455    40.775499   -18337.679 
  494000    226.81082   -18378.237    42.188026   -18336.049 
  495000    221.91985   -18379.908    41.278279    -18338.63 
  496000     223.8491   -18375.242     41.63713   -18333.604 
  497000    219.79944   -18380.862    40.883872   -18339.978 
  498000    228.16205   -18378.307    42.439361   -18335.868 
  499000    222.52726   -18378.585     41.39126   -18337.194 
  500000    216.80928   -18378.382    40.327685   -18338.054 
  501000    223.91074   -18378.937    41.648595   -18337.289 
  502000    222.73292   -18381.887    41.429515   -18340.457 
  503000    233.79686   -18371.048    43.487466   -18327.561 
  504000    219.99151   -18375.719    40.919598   -18334.799 
  505000    229.10905   -18376.847    42.615508   -18334.232 
  506000    213.49884   -18377.739    39.711927   -18338.027 
  507000    233.18509   -18378.933    43.373675    -18335.56 
  508000    217.89971    -18377.82    40.530511    -18337.29 
  509000    222.96706   -18381.677    41.473066   -18340.203 
  510000    226.08251   -18381.179    42.052557   -18339.126 
  511000     226.4335   -18377.911    42.117842   -18335.793 
  512000    226.28999   -18377.794    42.091149   -18335.703 
  513000    223.57159   -18378.709    41.585511   -18337.123 
  514000     216.3999   -18377.091    40.251539    -18336.84 
  515000    216.99299   -18379.638    40.361856   -18339.276 
  516000    230.03812   -18368.896    42.788321   -18326.108 
  517000    224.85971   -18375.628    41.825109   -18333.803 
  518000    215.42183   -18377.379    40.069612    -18337.31 
  519000    219.88453   -18375.313    40.899698   -18334.413 
  520000    224.66466   -18378.881    41.788829   -18337.092 
  521000    229.34069   -18376.236    42.658594   -18333.577 
  522000    226.61719    -18375.25    42.152009   -18333.098 
  523000    224.95267    -18374.45    41.842401   -18332.608 
  524000    220.81136   -18381.064    41.072094   -18339.992 
  525000    214.89956   -18375.437    39.972468   -18335.465 
  526000    220.98956   -18374.424    41.105239   -18333.319 
  527000    224.44781   -18375.488    41.748493   -18333.739 
  528000    211.44663   -18385.305    39.330204   -18345.975 
  529000    222.03441   -18378.039    41.299588   -18336.739 
  530000    220.72726   -18377.398    41.056452   -18336.342 
  531000    220.88195   -18381.053    41.085224   -18339.967 
  532000    237.18325   -18381.888    44.117354   -18337.771 
  533000    222.49271   -18379.536    41.384833   -18338.151 
  534000    214.15216   -18384.292    39.833448   -18344.459 
  535000    236.45808   -18378.945    43.982467   -18334.962 
  536000     225.8714   -18380.685    42.013289   -18338.672 
  537000     221.5279   -18383.142    41.205374   -18341.937 
  538000    229.63019   -18381.615    42.712444   -18338.903 
  539000    223.97177   -18380.566    41.659947   -18338.906 
  540000     227.9144   -18377.875    42.393297   -18335.482 
  541000    225.90204   -18379.356    42.018988   -18337.338 
  542000    231.16865   -18379.463    42.998604   -18336.465 
  543000    222.90493   -18379.156    41.461509   -18337.695 
  544000    218.84962   -18381.841      40.7072   -18341.134 
  545000    222.38933   -18378.036    41.365605   -18336.671 
  546000    221.60137    -18375.06     41.21904    -18333.84 
  547000    226.30295   -18377.953     42.09356    -18335.86 
  548000     220.8784   -18379.976    41.084563   -18338.891 
  549000     221.1926   -18379.752    41.143006   -18338.609 
  550000    217.14688   -18377.469    40.390481   -18337.078 
  551000    227.04652   -18374.876    42.231868   -18332.644 
  552000    222.92691   -18379.022    41.465597   -18337.557 
  553000    224.38906   -18379.263    41.737565   -18337.525 
  554000    235.28784   -18376.682    43.764797   -18332.917 
  555000    226.07063   -18379.068    42.050346   -18337.017 
  556000    222.18239   -18381.996    41.327113   -18340.669 
  557000     221.1902   -18376.911     41.14256   -18335.768 
  558000    219.26228   -18379.333    40.783956   -18338.549 
  559000    217.33553   -18376.542    40.425571   -18336.117 
  560000     217.7904   -18378.654    40.510179   -18338.144 
  561000    219.52915   -18381.231    40.833597   -18340.398 
  562000      219.895   -18378.226    40.901646   -18337.324 
  563000    226.92862   -18375.213    42.209938   -18333.003 
  564000     229.0809   -18378.597    42.610272   -18335.987 
  565000    219.02878   -18377.218    40.740525   -18336.478 
  566000    228.55427   -18377.053    42.512316   -18334.541 
  567000    220.77751   -18379.402    41.065797   -18338.336 
  568000     236.9605    -18376.61     44.07592   -18332.534 
  569000    225.86598   -18378.017     42.01228   -18336.004 
  570000    216.98627   -18383.934    40.360607   -18343.573 
  571000    223.81361   -18380.114    41.630528   -18338.483 
  572000    217.68432   -18373.509    40.490447   -18333.019 
  573000    225.33245   -18380.944    41.913041   -18339.031 
  574000    217.60168   -18384.362    40.475076   -18343.887 
  575000    230.50359   -18377.438      42.8749   -18334.563 
  576000    219.83943     -18382.6     40.89131   -18341.708 
  577000    216.12022   -18376.674    40.199516   -18336.475 
  578000    212.70364   -18379.289    39.564014   -18339.725 
  579000    211.96155   -18377.231    39.425981   -18337.805 
  580000    212.81182   -18375.915    39.584137   -18336.331 
  581000    215.78501   -18378.176    40.137165   -18338.039 
  582000    224.39132   -18379.299    41.737985   -18337.561 
  583000    218.73191   -18372.575    40.685305    -18331.89 
  584000    218.51564   -18382.551    40.645078   -18341.906 
  585000    215.52387   -18378.125    40.088592   -18338.036 
  586000    218.17297    -18375.78     40.58134   -18335.199 
  587000    223.51828   -18379.722    41.575596   -18338.147 
  588000    212.74723   -18380.741    39.572122   -18341.168 
  589000    220.91209   -18375.522    41.090829   -18334.431 
  590000    232.49986   -18379.358    43.246218   -18336.112 
  591000    225.02057   -18374.875     41.85503    -18333.02 
  592000    224.90906   -18380.112    41.834288   -18338.278 
  593000    226.19422   -18376.271    42.073335   -18334.198 
  594000    226.99627   -18381.429    42.222521   -18339.206 
  595000    220.07431   -18374.648    40.934999   -18333.713 
  596000    233.60881   -18379.428    43.452489   -18335.975 
  597000    227.32668    -18377.39    42.283978   -18335.106 
  598000      227.881   -18372.782    42.387085   -18330.394 
  599000    229.74556   -18376.459    42.733903   -18333.725 
  600000    222.41725   -18376.011    41.370799    -18334.64 
  601000    219.65106    -18378.83    40.856272   -18337.973 
  602000    230.44693   -18373.727    42.864362   -18330.863 
  603000    222.71731   -18375.155     41.42661   -18333.729 
  604000    226.11858   -18383.002    42.059265   -18340.942 
  605000    218.50526   -18375.472    40.643147   -18334.829 
  606000    228.14371   -18379.817     42.43595   -18337.381 
  607000    221.65339   -18378.033    41.228716   -18336.804 
  608000     220.9085    -18377.19    41.090162     -18336.1 
  609000    227.38947   -18382.606    42.295657    -18340.31 
  610000    224.35048     -18380.9     41.73039    -18339.17 
  611000     222.2567   -18378.786    41.340936   -18337.445 
  612000    225.45509   -18376.988    41.935853   -18335.052 
  613000    225.80024   -18376.497    42.000051   -18334.497 
  614000    227.25239   -18377.842     42.27016   -18335.572 
  615000     219.5646   -18380.708     40.84019   -18339.868 
  616000    233.02651   -18378.809    43.344178   -18335.465 
  617000    222.13834   -18379.948    41.318919   -18338.629 
  618000     224.1115   -18382.846    41.685937    -18341.16 
  619000    216.75428   -18376.163    40.317456   -18335.846 
  620000    219.88089   -18373.508    40.899021   -18332.609 
  621000    227.47078   -18382.788    42.310781   -18340.477 
  622000    229.35544   -18380.152    42.661339   -18337.491 
  623000    219.44746   -18377.556    40.818402   -18336.737 
  624000    217.47697   -18378.033    40.451879   -18337.582 
  625000    223.53333    -18375.29    41.578394   -18333.711 
  626000    220.94099   -18373.789    41.096206   -18332.693 
  627000    224.88709   -18380.542    41.830202   -18338.711 
  628000    221.93217   -18375.144     41.28057   -18333.864 
  629000    218.13651   -18379.553    40.574557   -18338.979 
  630000    231.83116   -18379.784    43.121836   -18336.662 
  631000    230.53524   -18380.489    42.880788   -18337.608 
  632000    222.46365   -18380.163    41.379429   -18338.783 
  633000    222.07359   -18378.069    41.306875   -18336.762 
  634000    224.64103   -18380.808    41.784433   -18339.023 
  635000    222.64248   -18376.182    41.412691    -18334.77 
  636000    221.65723   -18376.793     41.22943   -18335.564 
  637000     222.6513   -18375.078    41.414333   -18333.664 
  638000     219.8329   -18374.315    40.890096   -18333.425 
  639000    223.28101   -18375.291    41.531461    -18333.76 
  640000    218.90694   -18375.885    40.717861   -18335.167 
  641000    217.65434    -18375.71    40.484871   -18335.225 
  642000    220.50439   -18377.919    41.014996   -18336.904 
  643000     227.9364    -18378.01    42.397389   -18335.613 
  644000    218.52122   -18377.677    40.646115   -18337.031 
  645000    225.28112   -18377.882    41.903494   -18335.978 
  646000    212.18688   -18380.032    39.467895   -18340.565 
  647000    224.74142   -18379.979    41.803107   -18338.176 
  648000    225.31702   -18378.146    41.910171   -18336.235 
  649000    229.42015   -18378.341    42.673375   -18335.667 
  650000    222.82212   -18376.226    41.446107   -18334.779 
  651000    222.53593   -18372.523    41.392873    -18331.13 
  652000    218.97255   -18378.214    40.730065   -18337.484 
  653000    234.25661   -18379.381    43.572983   -18335.808 
  654000    226.49262   -18379.864    42.128839   -18337.736 
  655000    246.48811   -18382.317    45.848106   -18336.468 
  656000    221.68796    -18380.69    41.235147   -18339.455 
  657000    221.66279   -18379.057    41.230465   -18337.826 
  658000    229.46187   -18379.658    42.681135   -18336.977 
  659000    226.78212   -18381.193    42.182687    -18339.01 
  660000     227.7128   -18381.342    42.355798   -18338.986 
  661000    226.10989   -18368.138    42.057648    -18326.08 
  662000    234.17861   -18384.336    43.558473   -18340.777 
  663000     224.6556   -18380.823    41.787142   -18339.036 
  664000     218.0309   -18376.447    40.554913   -18335.892 
  665000    217.98106   -18376.621    40.545644   -18336.076 
  666000    222.39068   -18377.266    41.365855     -18335.9 
  667000    219.47097   -18373.488    40.822774   -18332.665 
  668000    213.78877   -18378.033    39.765855   -18338.267 
  669000    225.86958    -18380.15    42.012951   -18338.137 
  670000    225.03496   -18376.813    41.857706   -18334.956 
  671000    223.11459   -18378.039    41.500508   -18336.539 
  672000    228.59604   -18376.535    42.520086   -18334.015 
  673000    218.47386   -18376.206    40.637307   -18335.568 
  674000    214.86071   -18381.044    39.965242   -18341.078 
  675000    214.48742   -18381.027    39.895807   -18341.131 
  676000    221.55055   -18378.276    41.209588   -18337.067 
  677000    219.44361   -18377.502    40.817685   -18336.685 
  678000    222.88275    -18381.62    41.457383   -18340.162 
  679000    221.39099   -18379.154    41.179909   -18337.974 
  680000    213.49109   -18381.045    39.710485   -18341.334 
  681000    214.60695   -18379.481    39.918041   -18339.563 
  682000    218.27198   -18380.248    40.599756   -18339.649 
  683000    228.30656   -18378.262    42.466241   -18335.796 
  684000    220.97415   -18380.258    41.102373   -18339.156 
  685000    231.04402   -18382.674    42.975424   -18339.699 
  686000    222.33212   -18382.964    41.354964   -18341.609 
  687000    229.72513    -18375.27    42.730102    -18332.54 
  688000    229.12588    -18379.02    42.618638   -18336.402 
  689000    223.00616   -18381.765    41.480338   -18340.285 
  690000    227.19351   -18377.178    42.259207   -18334.918 
  691000    225.17113   -18379.986    41.883035   -18338.103 
  692000    224.17443   -18379.571    41.697643   -18337.873 
  693000    227.31822   -18376.684    42.282404   -18334.402 
  694000    229.01845   -18376.021    42.598656   -18333.423 
  695000    225.23406   -18378.544    41.894741    -18336.65 
  696000    223.77751   -18377.392    41.623814   -18335.768 
  697000      221.239   -18377.993    41.151637   -18336.842 
  698000    224.40567   -18375.139    41.740655   -18333.398 
  699000    219.90253   -18383.999    40.903047   -18343.096 
  700000    223.58355   -18384.363    41.587736   -18342.776 
  701000    224.62525   -18383.074    41.781498   -18341.292 
  702000     226.4528   -18379.064    42.121433   -18336.943 
  703000    212.87126   -18382.018    39.595192   -18342.423 
  704000      213.194   -18373.811    39.655225   -18334.156 
  705000    219.51983   -18374.756    40.831863   -18333.924 
  706000    218.44288   -18377.868    40.631545   -18337.236 
  707000    222.68303   -18378.695    41.420234   -18337.275 
  708000    227.81627   -18383.685    42.375046    -18341.31 
  709000    215.16462   -18379.393     40.02177   -18339.371 
  710000    221.29162   -18380.264    41.161425   -18339.102 
  711000      223.846   -18377.847    41.636552    -18336.21 
  712000     218.6347   -18380.023    40.667224   -18339.356 
  713000    224.16725   -18375.786    41.696307    -18334.09 
  714000    212.26409   -18368.848    39.482255   -18329.365 
  715000    213.95626   -18378.736    39.797009   -18338.939 
  716000    233.13362   -18380.753      43.3641   -18337.389 
  717000    224.93976   -18379.723    41.839998   -18337.883 
  718000    222.40805   -18376.307    41.369087   -18334.938 
  719000     223.0861   -18374.485    41.495208    -18332.99 
  720000    218.40049   -18374.575    40.623659   -18333.951 
  721000    223.63919    -18380.96    41.598086   -18339.362 
  722000    224.94588   -18378.082    41.841137   -18336.241 
  723000    224.78063   -18379.747      41.8104   -18337.937 
  724000    226.37279     -18378.7    42.106549   -18336.594 
  725000    223.26527   -18375.169    41.528535    -18333.64 
  726000    225.33521   -18377.945    41.913554   -18336.031 
  727000    216.94249    -18374.65    40.352464   -18334.298 
  728000    224.35209   -18377.879    41.730688   -18336.148 
  729000    231.57395   -18376.986    43.073994   -18333.912 
  730000    233.25518   -18382.797    43.386712   -18339.411 
  731000    223.08597   -18373.494    41.495184   -18331.999 
  732000    214.54246   -18379.294    39.906044   -18339.388 
  733000    217.57488   -18377.173    40.470091   -18336.703 
  734000    221.65939   -18381.703    41.229833   -18340.473 
  735000    232.56411   -18375.954    43.258168   -18332.695 
  736000    217.66499   -18370.962    40.486853   -18330.476 
  737000    220.19051    -18374.21    40.956612   -18333.253 
  738000    222.19518   -18375.429    41.329491   -18334.099 
  739000    221.95921   -18381.421      41.2856   -18340.135 
  740000    222.54414   -18378.743      41.3944   -18337.349 
  741000    223.90947   -18375.271    41.648358   -18333.622 
  742000    224.17834   -18381.016     41.69837   -18339.318 
  743000    223.71586   -18374.217    41.612346   -18332.605 
  744000    227.77856   -18385.112     42.36803   -18342.744 
  745000    228.54486   -18381.219    42.510567   -18338.708 
  746000    213.87743   -18378.408    39.782345   -18338.626 
  747000    225.36291   -18381.308    41.918706   -18339.389 
  748000    218.24715   -18378.444    40.595137   -18337.849 
  749000    221.71538   -18378.201    41.240246   -18336.961 
  750000    220.46398   -18378.675     41.00748   -18337.668 
  751000    211.35176   -18379.908    39.312557   -18340.596 
  752000    223.71292   -18378.563    41.611799   -18336.952 
  753000    223.33033   -18373.954    41.540636   -18332.414 
  754000    217.89534   -18376.951    40.529698   -18336.421 
  755000    223.00789   -18380.468    41.480661   -18338.988 
  756000    225.12777   -18376.154    41.874969   -18334.279 
  757000     227.8382   -18375.186    42.379124   -18332.806 
  758000    222.35118   -18381.677     41.35851   -18340.319 
  759000    213.85948   -18378.012    39.779007   -18338.233 
  760000    216.63703   -18380.335    40.295647   -18340.039 
  761000    220.75763   -18375.382      41.0621   -18334.319 
  762000    219.45223   -18380.639    40.819289    -18339.82 
  763000    235.37347   -18384.166    43.780724   -18340.386 
  764000    216.94391   -18380.092    40.352727   -18339.739 
  765000    222.23469   -18375.542    41.336842   -18334.205 
  766000    228.04201   -18375.748    42.417033   -18333.331 
  767000    228.10583   -18376.335    42.428904   -18333.906 
  768000    235.32564   -18381.821    43.771828    -18338.05 
  769000    231.15045   -18381.115     42.99522    -18338.12 
  770000     217.9924   -18376.981    40.547752   -18336.434 
  771000    221.64621   -18374.149     41.22738   -18332.921 
  772000    225.88833   -18380.794    42.016438   -18338.777 
  773000    223.66747   -18376.223    41.603345    -18334.62 
  774000    227.33886   -18374.177    42.286244   -18331.891 
  775000     234.4013   -18373.079    43.599896   -18329.479 
  776000    224.00526     -18377.4    41.666176   -18335.733 
  777000    228.39964   -18380.938    42.483555   -18338.454 
  778000    217.43027   -18377.048    40.443194   -18336.605 
  779000    227.88435   -18373.852    42.387708   -18331.464 
  780000    218.08658   -18381.145     40.56527    -18340.58 
  781000    217.51928   -18378.968    40.459749   -18338.508 
  782000     227.1842   -18382.876    42.257476   -18340.618 
  783000     216.1515    -18375.72    40.205336   -18335.514 
  784000     223.3867   -18376.991     41.55112   -18335.439 
  785000    223.21552   -18377.761    41.519281   -18336.242 
  786000    229.88563   -18381.847    42.759957   -18339.087 
  787000    223.83724   -18377.551    41.634924   -18335.916 
  788000    219.76325   -18373.172     40.87714   -18332.295 
  789000    228.34577   -18379.549    42.473535   -18337.076 
  790000    225.50437   -18380.083     41.94502   -18338.138 
  791000    216.86785   -18379.315    40.338579   -18338.976 
  792000    225.26118   -18378.092    41.899784   -18336.192 
  793000    219.88266   -18379.527     40.89935   -18338.628 
  794000    214.61456   -18376.436    39.919455   -18336.517 
  795000    216.20637   -18382.181    40.215541   -18341.966 
  796000    217.31224    -18380.01    40.421238   -18339.589 
  797000    221.81279    -18379.54    41.258365   -18338.281 
  798000    220.95612    -18375.12    41.099019   -18334.021 
  799000    223.56393   -18377.811    41.584086   -18336.226 
  800000    219.77608   -18375.656    40.879525   -18334.777 
  801000    225.70815   -18376.682    41.982923   -18334.699 
  802000    224.26316   -18378.027    41.714147   -18336.312 
  803000    216.35618    -18373.31    40.243407   -18333.067 
  804000      216.035   -18376.945    40.183666   -18336.762 
  805000    226.61007    -18384.44    42.150686    -18342.29 
  806000    234.55153   -18378.578     43.62784    -18334.95 
  807000    227.21602   -18378.096    42.263394   -18335.833 
  808000    216.68753   -18382.957    40.305039   -18342.652 
  809000    212.06203   -18378.683    39.444672   -18339.239 
  810000     218.6104   -18380.704    40.662703   -18340.041 
  811000    216.93592   -18376.934    40.351241   -18336.582 
  812000    213.36473    -18375.25    39.686982   -18335.563 
  813000    223.57399   -18378.129    41.585958   -18336.544 
  814000    219.10756   -18378.269    40.755179   -18337.514 
  815000    214.39401   -18376.055    39.878433   -18336.177 
  816000    221.98052     -18374.4    41.289563   -18333.111 
  817000      228.465   -18374.628    42.495712   -18332.132 
  818000    222.07454   -18379.559    41.307053   -18338.252 
  819000    220.35885   -18377.039    40.987925   -18336.051 
  820000    220.79074   -18376.401    41.068258   -18335.333 
  821000    221.84927   -18377.368     41.26515   -18336.103 
  822000    222.47559   -18377.532    41.381649    -18336.15 
  823000    227.36662    -18375.52    42.291407   -18333.228 
  824000    233.03977   -18382.911    43.346644   -18339.565 
  825000     220.1723   -18380.406    40.953226   -18339.453 
  826000    217.49484   -18374.963    40.455203   -18334.508 
  827000    221.27497   -18380.365    41.158329   -18339.206 
  828000    227.07725   -18377.196    42.237583   -18334.959 
  829000    218.85262   -18372.361    40.707757   -18331.653 
  830000    222.85422   -18373.488    41.452077   -18332.036 
  831000    225.04101   -18377.627    41.858831   -18335.768 
  832000    222.85446   -18374.609    41.452122   -18333.157 
  833000    214.65369   -18374.185    39.926735   -18334.258 
  834000    225.51683   -18376.383    41.947336   -18334.435 
  835000    219.89921   -18376.321     40.90243   -18335.419 
  836000    222.50692   -18378.161    41.387477   -18336.774 
  837000    222.88751   -18382.602    41.458268   -18341.144 
  838000    224.53536    -18377.04    41.764778   -18335.276 
  839000    226.26804   -18370.996    42.087066   -18328.909 
  840000    221.04454   -18378.572    41.115467   -18337.457 
  841000    225.24149   -18377.855    41.896121   -18335.959 
  842000    216.89671   -18377.554    40.343948    -18337.21 
  843000    232.55145   -18382.494    43.255814   -18339.238 
  844000    216.89958   -18376.506    40.344483   -18336.162 
  845000    216.26977   -18377.222    40.227335   -18336.995 
  846000    219.03953   -18383.032    40.742524    -18342.29 
  847000    217.79612   -18378.972    40.511243   -18338.461 
  848000    226.01141    -18379.68     42.03933   -18337.641 
  849000    220.33207   -18378.643    40.982943    -18337.66 
  850000     216.8912   -18379.572    40.342923   -18339.229 
  851000    225.44646   -18377.164    41.934248    -18335.23 
  852000    229.52389   -18380.117     42.69267   -18337.425 
  853000     219.9281   -18378.746    40.907802   -18337.838 
  854000    218.64722   -18380.721    40.669553   -18340.052 
  855000    224.85478   -18368.915    41.824192   -18327.091 
  856000     224.1759   -18376.729    41.697917   -18335.031 
  857000    231.70798   -18380.862    43.098924   -18337.763 
  858000    225.41091   -18377.954    41.927634   -18336.027 
  859000    215.52535   -18382.029    40.088867   -18341.941 
  860000     220.6295   -18377.602    41.038268   -18336.564 
  861000       219.22   -18371.034    40.776092   -18330.258 
  862000      224.428   -18379.009    41.744809   -18337.265 
  863000    223.97945   -18376.534    41.661375   -18334.873 
  864000    224.98689   -18380.612    41.848766   -18338.763 
  865000    225.39792   -18378.766     41.92522   -18336.841 
  866000    216.09463   -18373.695    40.194757     -18333.5 
  867000    225.59616   -18378.311    41.962093   -18336.348 
  868000    215.88137   -18380.125     40.15509    -18339.97 
  869000    218.66846   -18375.345    40.673503   -18334.671 
  870000     230.6704   -18372.921    42.905927   -18330.016 
  871000    226.92953   -18371.657    42.210107   -18329.447 
  872000    224.85051   -18373.622    41.823398   -18331.798 
  873000    219.09374   -18372.297    40.752608   -18331.545 
  874000    223.58674   -18380.151     41.58833   -18338.563 
  875000     215.4755   -18375.599    40.079595   -18335.519 
  876000    225.93324   -18377.138    42.024791   -18335.113 
  877000    221.35747   -18378.386    41.173673   -18337.213 
  878000    232.56478   -18373.532    43.258292   -18330.273 
  879000    219.84316   -18375.108    40.892003   -18334.216 
  880000    218.53877   -18378.126     40.64938   -18337.476 
  881000    217.00914   -18380.412    40.364861   -18340.047 
  882000     217.7798   -18378.608    40.508207     -18338.1 
  883000    217.18151   -18375.331    40.396923   -18334.934 
  884000    225.89045   -18378.686    42.016831   -18336.669 
  885000    221.11947   -18377.432    41.129404   -18336.303 
  886000    229.03846   -18379.164    42.602378   -18336.561 
  887000    217.74338   -18378.724    40.501433   -18338.223 
  888000    222.78914   -18380.396    41.439971   -18338.956 
  889000    222.60924   -18380.048     41.40651   -18338.642 
  890000    236.58289   -18376.431    44.005683   -18332.425 
  891000    229.09819   -18382.565    42.613489   -18339.951 
  892000    225.19996   -18379.428    41.888396   -18337.539 
  893000    224.24083   -18375.929    41.709993   -18334.219 
  894000    223.19055   -18378.199    41.514636   -18336.685 
  895000    227.71413   -18380.226    42.356046    -18337.87 
  896000     218.2037   -18375.241    40.587055   -18334.654 
  897000    220.82467     -18375.5     41.07457   -18334.425 
  898000    224.00444   -18376.644    41.666025   -18334.977 
  899000    222.80376   -18375.367     41.44269   -18333.925 
  900000      223.261   -18380.744    41.527739   -18339.217 
  901000    230.21824   -18381.062    42.821824    -18338.24 
  902000    221.51654   -18373.691    41.203261   -18332.488 
  903000    232.10719    -18376.37     43.17318   -18333.197 
  904000    222.72087   -18378.575    41.427273   -18337.148 
  905000    223.60238   -18376.894    41.591239   -18335.302 
  906000    222.48574   -18374.736    41.383538   -18333.352 
  907000     223.4217   -18371.708     41.55763    -18330.15 
  908000     222.7874   -18376.175    41.439648   -18334.735 
  909000    229.49449   -18375.114    42.687202   -18332.427 
  910000     228.6718   -18383.004    42.534178    -18340.47 
  911000    215.21626   -18377.698    40.031375   -18337.667 
  912000    231.91947   -18379.719    43.138261    -18336.58 
  913000     234.8839   -18381.045    43.689661   -18337.356 
  914000    225.50094   -18378.623    41.944382   -18336.679 
  915000     227.8647   -18377.721    42.384052   -18335.337 
  916000    228.86859   -18379.695    42.570782   -18337.124 
  917000    214.78464   -18376.331    39.951092    -18336.38 
  918000    219.76528   -18376.045    40.877518   -18335.168 
  919000    228.79605   -18378.478     42.55729   -18335.921 
  920000     227.4471   -18374.564    42.306377   -18332.257 
  921000    220.30797   -18371.568     40.97846    -18330.59 
  922000    229.55574   -18379.231    42.698595   -18336.532 
  923000    221.39934    -18378.23    41.181461   -18337.048 
  924000    215.06594   -18376.609    40.003415   -18336.605 
  925000    220.80853   -18382.307    41.071568   -18341.236 
  926000    207.43933   -18374.364    38.584824   -18335.779 
  927000    225.36095   -18379.237    41.918341   -18337.319 
  928000    232.56091   -18377.395    43.257572   -18334.137 
  929000    227.25005   -18377.703    42.269724   -18335.433 
  930000    224.20783   -18382.098    41.703855   -18340.394 
  931000    221.08342   -18381.079    41.122699   -18339.956 
  932000     224.7491   -18376.499    41.804534   -18334.694 
  933000     209.2891   -18379.351    38.928892   -18340.422 
  934000    220.78847   -18378.561    41.067837   -18337.493 
  935000    222.72542   -18376.403    41.428119   -18334.975 
  936000    230.07219   -18377.872    42.794658   -18335.078 
  937000    220.12386   -18378.655    40.944216   -18337.711 
  938000    224.28186   -18378.913    41.717626   -18337.196 
  939000     222.4513   -18376.241    41.377131   -18334.864 
  940000    215.73009   -18375.682     40.12695   -18335.555 
  941000      219.083   -18379.061    40.750609    -18338.31 
  942000    227.40993   -18377.565    42.299463   -18335.265 
  943000    214.88919   -18374.931    39.970539    -18334.96 
  944000    224.33867   -18374.152    41.728193   -18332.424 
  945000    233.95102   -18378.352    43.516141   -18334.836 
  946000     209.0106   -18373.208     38.87709   -18334.331 
  947000    227.87742   -18385.538     42.38642   -18343.152 
  948000    226.96699   -18377.782    42.217074   -18335.565 
  949000    223.08093    -18375.33    41.494245   -18333.836 
  950000    222.19032   -18378.382    41.328588   -18337.053 
  951000    225.37659   -18375.608    41.921251   -18333.687 
  952000    219.61287   -18377.809    40.849169    -18336.96 
  953000    236.18012   -18378.924    43.930766   -18334.993 
  954000    227.95042    -18375.06    42.399998    -18332.66 
  955000    225.45949   -18377.925    41.936671   -18335.988 
  956000    219.51051   -18374.237    40.830129   -18333.407 
  957000    223.58623   -18381.056    41.588236   -18339.468 
  958000    223.38583   -18380.124    41.550959   -18338.573 
  959000    221.69965   -18378.002    41.237321   -18336.764 
  960000    229.14894   -18378.248    42.622929   -18335.625 
  961000    218.67141   -18379.209    40.674052   -18338.534 
  962000    234.59331   -18377.843     43.63561   -18334.207 
  963000    221.77399   -18375.497    41.251149   -18334.246 
  964000    220.22837   -18382.794    40.963655   -18341.831 
  965000     226.1933   -18377.504    42.073164    -18335.43 
  966000    227.78183   -18377.566    42.368638   -18335.197 
  967000    228.57177   -18374.048    42.515572   -18331.532 
  968000    227.70909   -18377.851    42.355108   -18335.496 
  969000     220.4813   -18378.271    41.010701    -18337.26 
  970000    220.54218   -18376.621    41.022026   -18335.599 
  971000     225.6937   -18377.553    41.980235   -18335.573 
  972000    229.59022   -18373.861     42.70501   -18331.156 
  973000    222.84989   -18378.915    41.451272   -18337.464 
  974000    225.58649   -18374.747    41.960294   -18332.786 
  975000    224.57589   -18378.401    41.772317   -18336.629 
  976000    224.72734   -18376.767    41.800488   -18334.967 
  977000    223.65521   -18380.394    41.601065   -18338.793 
  978000    212.67393   -18379.821    39.558488   -18340.263 
  979000    214.03754   -18378.625    39.812128   -18338.813 
  980000    217.30415   -18375.632    40.419734   -18335.212 
  981000    233.78507   -18383.432    43.485274   -18339.947 
  982000    230.20085   -18376.455     42.81859   -18333.636 
  983000    227.69884   -18380.012    42.353202   -18337.659 
  984000     230.3112   -18383.703    42.839115   -18340.863 
  985000    235.26876   -18377.277    43.761248   -18333.516 
  986000    221.84665   -18373.699    41.264663   -18332.434 
  987000    222.07053   -18372.908    41.306306   -18331.602 
  988000    221.54837   -18374.539    41.209182    -18333.33 
  989000    224.56911   -18375.838    41.771055   -18334.067 
  990000    224.67025   -18375.966    41.789869   -18334.176 
  991000    224.25851   -18376.757    41.713282   -18335.044 
  992000    237.01878   -18379.274     44.08676   -18335.187 
  993000    220.50227   -18376.802    41.014601   -18335.788 
  994000    226.51837   -18374.649    42.133628   -18332.515 
  995000     221.6443   -18380.759    41.227025   -18339.532 
  996000    219.86781   -18378.162    40.896588   -18337.265 
  997000    217.82422    -18380.94    40.516469   -18340.424 
  998000    223.32616   -18377.489     41.53986   -18335.949 
  999000    225.16684   -18377.916    41.882236   -18336.033 
 1000000    229.43296   -18380.083    42.675758   -18337.407 
Loop time of 4947.63 on 16 procs for 1000000 steps with 1440 atoms

Performance: 17.463 ns/day, 1.374 hours/ns, 202.117 timesteps/s
71.6% CPU use with 16 MPI tasks x no OpenMP threads

MPI task timing breakdown:
Section |  min time  |  avg time  |  max time  |%varavg| %total
---------------------------------------------------------------
Pair    | 0.59107    | 621.18     | 1520.2     |2512.2 | 12.56
Bond    | 0.075959   | 0.11511    | 0.18521    |   9.0 |  0.00
Kspace  | 2281.7     | 2762.5     | 3392.4     | 917.2 | 55.83
Neigh   | 0.0047781  | 0.11203    | 0.26868    |  32.4 |  0.00
Comm    | 153.13     | 1406.6     | 2579.1     |2727.8 | 28.43
Output  | 0.63301    | 0.63594    | 0.67599    |   1.3 |  0.01
Modify  | 55.051     | 141.58     | 504.73     |1216.7 |  2.86
Other   |            | 14.9       |            |       |  0.30

Nlocal:    90 ave 196 max 0 min
Histogram: 8 0 0 0 0 0 0 0 3 5
Nghost:    726.375 ave 1027 max 436 min
Histogram: 8 0 0 0 0 0 0 0 0 8
Neighs:    7461.81 ave 18151 max 0 min
Histogram: 8 0 0 0 0 0 0 5 2 1

Total # of neighbors = 119389
Ave neighs/atom = 82.909
Ave special neighs/atom = 0
Neighbor list builds = 336
Dangerous builds = 0








Total wall time: 3:48:48
